*NODE
1, 0.000000000, 0.000000000, 0.000000000
2, 1.380000000, 0.000000000, 0.000000000
3, 2.760000000, 0.000000000, 0.000000000
4, 4.140000000, 0.000000000, 0.000000000
5, 5.520000000, 0.000000000, 0.000000000
6, 6.900000000, 0.000000000, 0.000000000
7, 8.280000000, 0.000000000, 0.000000000
8, 9.660000000, 0.000000000, 0.000000000
9, 11.040000000, 0.000000000, 0.000000000
10, 12.420000000, 0.000000000, 0.000000000
11, 13.800000000, 0.000000000, 0.000000000
12, 15.180000000, 0.000000000, 0.000000000
13, 16.560000000, 0.000000000, 0.000000000
14, 17.940000000, 0.000000000, 0.000000000
15, 19.320000000, 0.000000000, 0.000000000
16, 20.700000000, 0.000000000, 0.000000000
17, 22.080000000, 0.000000000, 0.000000000
18, 23.460000000, 0.000000000, 0.000000000
19, 24.840000000, 0.000000000, 0.000000000
20, 26.220000000, 0.000000000, 0.000000000
21, 27.600000000, 0.000000000, 0.000000000
22, 28.980000000, 0.000000000, 0.000000000
23, 30.360000000, 0.000000000, 0.000000000
24, 31.740000000, 0.000000000, 0.000000000
25, 33.120000000, 0.000000000, 0.000000000
26, 34.500000000, 0.000000000, 0.000000000
27, 35.880000000, 0.000000000, 0.000000000
28, 37.260000000, 0.000000000, 0.000000000
29, 38.640000000, 0.000000000, 0.000000000
30, 40.020000000, 0.000000000, 0.000000000
31, 41.400000000, 0.000000000, 0.000000000
32, 42.780000000, 0.000000000, 0.000000000
33, 44.160000000, 0.000000000, 0.000000000
34, 45.540000000, 0.000000000, 0.000000000
35, 46.920000000, 0.000000000, 0.000000000
36, 48.300000000, 0.000000000, 0.000000000
37, 49.680000000, 0.000000000, 0.000000000
38, 51.060000000, 0.000000000, 0.000000000
39, 52.440000000, 0.000000000, 0.000000000
40, 53.820000000, 0.000000000, 0.000000000
41, 55.200000000, 0.000000000, 0.000000000
42, 56.580000000, 0.000000000, 0.000000000
43, 57.960000000, 0.000000000, 0.000000000
44, 59.340000000, 0.000000000, 0.000000000
45, 60.720000000, 0.000000000, 0.000000000
46, 62.100000000, 0.000000000, 0.000000000
47, 63.480000000, 0.000000000, 0.000000000
48, 64.860000000, 0.000000000, 0.000000000
49, 66.240000000, 0.000000000, 0.000000000
50, 67.620000000, 0.000000000, 0.000000000
51, 69.000000000, 0.000000000, 0.000000000
52, 70.380000000, 0.000000000, 0.000000000
53, 71.760000000, 0.000000000, 0.000000000
54, 73.140000000, 0.000000000, 0.000000000
55, 74.520000000, 0.000000000, 0.000000000
56, 75.900000000, 0.000000000, 0.000000000
57, 77.280000000, 0.000000000, 0.000000000
58, 78.660000000, 0.000000000, 0.000000000
59, 80.040000000, 0.000000000, 0.000000000
60, 81.420000000, 0.000000000, 0.000000000
61, 82.800000000, 0.000000000, 0.000000000
62, 84.180000000, 0.000000000, 0.000000000
63, 85.560000000, 0.000000000, 0.000000000
64, 86.940000000, 0.000000000, 0.000000000
65, 88.320000000, 0.000000000, 0.000000000
66, 89.700000000, 0.000000000, 0.000000000
67, 91.080000000, 0.000000000, 0.000000000
68, 92.460000000, 0.000000000, 0.000000000
69, 93.840000000, 0.000000000, 0.000000000
70, 95.220000000, 0.000000000, 0.000000000
71, 96.600000000, 0.000000000, 0.000000000
72, 97.980000000, 0.000000000, 0.000000000
73, 99.360000000, 0.000000000, 0.000000000
74, 100.740000000, 0.000000000, 0.000000000
75, 102.120000000, 0.000000000, 0.000000000
76, 103.500000000, 0.000000000, 0.000000000
77, 104.880000000, 0.000000000, 0.000000000
78, 106.260000000, 0.000000000, 0.000000000
79, 107.640000000, 0.000000000, 0.000000000
80, 109.020000000, 0.000000000, 0.000000000
81, 110.400000000, 0.000000000, 0.000000000
82, 111.780000000, 0.000000000, 0.000000000
83, 113.160000000, 0.000000000, 0.000000000
84, 114.540000000, 0.000000000, 0.000000000
85, 115.920000000, 0.000000000, 0.000000000
86, 117.300000000, 0.000000000, 0.000000000
87, 118.680000000, 0.000000000, 0.000000000
88, 120.060000000, 0.000000000, 0.000000000
89, 121.440000000, 0.000000000, 0.000000000
90, 122.820000000, 0.000000000, 0.000000000
91, 124.200000000, 0.000000000, 0.000000000
92, 125.580000000, 0.000000000, 0.000000000
93, 126.960000000, 0.000000000, 0.000000000
94, 128.340000000, 0.000000000, 0.000000000
95, 129.720000000, 0.000000000, 0.000000000
96, 131.100000000, 0.000000000, 0.000000000
97, 132.480000000, 0.000000000, 0.000000000
98, 133.860000000, 0.000000000, 0.000000000
99, 135.240000000, 0.000000000, 0.000000000
100, 136.620000000, 0.000000000, 0.000000000
101, 138.000000000, 0.000000000, 0.000000000
102, 0.000000000, 1.266666667, 0.000000000
103, 1.380000000, 1.266666667, 0.000000000
104, 2.760000000, 1.266666667, 0.000000000
105, 4.140000000, 1.266666667, 0.000000000
106, 5.520000000, 1.266666667, 0.000000000
107, 6.900000000, 1.266666667, 0.000000000
108, 8.280000000, 1.266666667, 0.000000000
109, 9.660000000, 1.266666667, 0.000000000
110, 11.040000000, 1.266666667, 0.000000000
111, 12.420000000, 1.266666667, 0.000000000
112, 13.800000000, 1.266666667, 0.000000000
113, 15.180000000, 1.266666667, 0.000000000
114, 16.560000000, 1.266666667, 0.000000000
115, 17.940000000, 1.266666667, 0.000000000
116, 19.320000000, 1.266666667, 0.000000000
117, 20.700000000, 1.266666667, 0.000000000
118, 22.080000000, 1.266666667, 0.000000000
119, 23.460000000, 1.266666667, 0.000000000
120, 24.840000000, 1.266666667, 0.000000000
121, 26.220000000, 1.266666667, 0.000000000
122, 27.600000000, 1.266666667, 0.000000000
123, 28.980000000, 1.266666667, 0.000000000
124, 30.360000000, 1.266666667, 0.000000000
125, 31.740000000, 1.266666667, 0.000000000
126, 33.120000000, 1.266666667, 0.000000000
127, 34.500000000, 1.266666667, 0.000000000
128, 35.880000000, 1.266666667, 0.000000000
129, 37.260000000, 1.266666667, 0.000000000
130, 38.640000000, 1.266666667, 0.000000000
131, 40.020000000, 1.266666667, 0.000000000
132, 41.400000000, 1.266666667, 0.000000000
133, 42.780000000, 1.266666667, 0.000000000
134, 44.160000000, 1.266666667, 0.000000000
135, 45.540000000, 1.266666667, 0.000000000
136, 46.920000000, 1.266666667, 0.000000000
137, 48.300000000, 1.266666667, 0.000000000
138, 49.680000000, 1.266666667, 0.000000000
139, 51.060000000, 1.266666667, 0.000000000
140, 52.440000000, 1.266666667, 0.000000000
141, 53.820000000, 1.266666667, 0.000000000
142, 55.200000000, 1.266666667, 0.000000000
143, 56.580000000, 1.266666667, 0.000000000
144, 57.960000000, 1.266666667, 0.000000000
145, 59.340000000, 1.266666667, 0.000000000
146, 60.720000000, 1.266666667, 0.000000000
147, 62.100000000, 1.266666667, 0.000000000
148, 63.480000000, 1.266666667, 0.000000000
149, 64.860000000, 1.266666667, 0.000000000
150, 66.240000000, 1.266666667, 0.000000000
151, 67.620000000, 1.266666667, 0.000000000
152, 69.000000000, 1.266666667, 0.000000000
153, 70.380000000, 1.266666667, 0.000000000
154, 71.760000000, 1.266666667, 0.000000000
155, 73.140000000, 1.266666667, 0.000000000
156, 74.520000000, 1.266666667, 0.000000000
157, 75.900000000, 1.266666667, 0.000000000
158, 77.280000000, 1.266666667, 0.000000000
159, 78.660000000, 1.266666667, 0.000000000
160, 80.040000000, 1.266666667, 0.000000000
161, 81.420000000, 1.266666667, 0.000000000
162, 82.800000000, 1.266666667, 0.000000000
163, 84.180000000, 1.266666667, 0.000000000
164, 85.560000000, 1.266666667, 0.000000000
165, 86.940000000, 1.266666667, 0.000000000
166, 88.320000000, 1.266666667, 0.000000000
167, 89.700000000, 1.266666667, 0.000000000
168, 91.080000000, 1.266666667, 0.000000000
169, 92.460000000, 1.266666667, 0.000000000
170, 93.840000000, 1.266666667, 0.000000000
171, 95.220000000, 1.266666667, 0.000000000
172, 96.600000000, 1.266666667, 0.000000000
173, 97.980000000, 1.266666667, 0.000000000
174, 99.360000000, 1.266666667, 0.000000000
175, 100.740000000, 1.266666667, 0.000000000
176, 102.120000000, 1.266666667, 0.000000000
177, 103.500000000, 1.266666667, 0.000000000
178, 104.880000000, 1.266666667, 0.000000000
179, 106.260000000, 1.266666667, 0.000000000
180, 107.640000000, 1.266666667, 0.000000000
181, 109.020000000, 1.266666667, 0.000000000
182, 110.400000000, 1.266666667, 0.000000000
183, 111.780000000, 1.266666667, 0.000000000
184, 113.160000000, 1.266666667, 0.000000000
185, 114.540000000, 1.266666667, 0.000000000
186, 115.920000000, 1.266666667, 0.000000000
187, 117.300000000, 1.266666667, 0.000000000
188, 118.680000000, 1.266666667, 0.000000000
189, 120.060000000, 1.266666667, 0.000000000
190, 121.440000000, 1.266666667, 0.000000000
191, 122.820000000, 1.266666667, 0.000000000
192, 124.200000000, 1.266666667, 0.000000000
193, 125.580000000, 1.266666667, 0.000000000
194, 126.960000000, 1.266666667, 0.000000000
195, 128.340000000, 1.266666667, 0.000000000
196, 129.720000000, 1.266666667, 0.000000000
197, 131.100000000, 1.266666667, 0.000000000
198, 132.480000000, 1.266666667, 0.000000000
199, 133.860000000, 1.266666667, 0.000000000
200, 135.240000000, 1.266666667, 0.000000000
201, 136.620000000, 1.266666667, 0.000000000
202, 138.000000000, 1.266666667, 0.000000000
203, 0.000000000, 2.533333333, 0.000000000
204, 1.380000000, 2.533333333, 0.000000000
205, 2.760000000, 2.533333333, 0.000000000
206, 4.140000000, 2.533333333, 0.000000000
207, 5.520000000, 2.533333333, 0.000000000
208, 6.900000000, 2.533333333, 0.000000000
209, 8.280000000, 2.533333333, 0.000000000
210, 9.660000000, 2.533333333, 0.000000000
211, 11.040000000, 2.533333333, 0.000000000
212, 12.420000000, 2.533333333, 0.000000000
213, 13.800000000, 2.533333333, 0.000000000
214, 15.180000000, 2.533333333, 0.000000000
215, 16.560000000, 2.533333333, 0.000000000
216, 17.940000000, 2.533333333, 0.000000000
217, 19.320000000, 2.533333333, 0.000000000
218, 20.700000000, 2.533333333, 0.000000000
219, 22.080000000, 2.533333333, 0.000000000
220, 23.460000000, 2.533333333, 0.000000000
221, 24.840000000, 2.533333333, 0.000000000
222, 26.220000000, 2.533333333, 0.000000000
223, 27.600000000, 2.533333333, 0.000000000
224, 28.980000000, 2.533333333, 0.000000000
225, 30.360000000, 2.533333333, 0.000000000
226, 31.740000000, 2.533333333, 0.000000000
227, 33.120000000, 2.533333333, 0.000000000
228, 34.500000000, 2.533333333, 0.000000000
229, 35.880000000, 2.533333333, 0.000000000
230, 37.260000000, 2.533333333, 0.000000000
231, 38.640000000, 2.533333333, 0.000000000
232, 40.020000000, 2.533333333, 0.000000000
233, 41.400000000, 2.533333333, 0.000000000
234, 42.780000000, 2.533333333, 0.000000000
235, 44.160000000, 2.533333333, 0.000000000
236, 45.540000000, 2.533333333, 0.000000000
237, 46.920000000, 2.533333333, 0.000000000
238, 48.300000000, 2.533333333, 0.000000000
239, 49.680000000, 2.533333333, 0.000000000
240, 51.060000000, 2.533333333, 0.000000000
241, 52.440000000, 2.533333333, 0.000000000
242, 53.820000000, 2.533333333, 0.000000000
243, 55.200000000, 2.533333333, 0.000000000
244, 56.580000000, 2.533333333, 0.000000000
245, 57.960000000, 2.533333333, 0.000000000
246, 59.340000000, 2.533333333, 0.000000000
247, 60.720000000, 2.533333333, 0.000000000
248, 62.100000000, 2.533333333, 0.000000000
249, 63.480000000, 2.533333333, 0.000000000
250, 64.860000000, 2.533333333, 0.000000000
251, 66.240000000, 2.533333333, 0.000000000
252, 67.620000000, 2.533333333, 0.000000000
253, 69.000000000, 2.533333333, 0.000000000
254, 70.380000000, 2.533333333, 0.000000000
255, 71.760000000, 2.533333333, 0.000000000
256, 73.140000000, 2.533333333, 0.000000000
257, 74.520000000, 2.533333333, 0.000000000
258, 75.900000000, 2.533333333, 0.000000000
259, 77.280000000, 2.533333333, 0.000000000
260, 78.660000000, 2.533333333, 0.000000000
261, 80.040000000, 2.533333333, 0.000000000
262, 81.420000000, 2.533333333, 0.000000000
263, 82.800000000, 2.533333333, 0.000000000
264, 84.180000000, 2.533333333, 0.000000000
265, 85.560000000, 2.533333333, 0.000000000
266, 86.940000000, 2.533333333, 0.000000000
267, 88.320000000, 2.533333333, 0.000000000
268, 89.700000000, 2.533333333, 0.000000000
269, 91.080000000, 2.533333333, 0.000000000
270, 92.460000000, 2.533333333, 0.000000000
271, 93.840000000, 2.533333333, 0.000000000
272, 95.220000000, 2.533333333, 0.000000000
273, 96.600000000, 2.533333333, 0.000000000
274, 97.980000000, 2.533333333, 0.000000000
275, 99.360000000, 2.533333333, 0.000000000
276, 100.740000000, 2.533333333, 0.000000000
277, 102.120000000, 2.533333333, 0.000000000
278, 103.500000000, 2.533333333, 0.000000000
279, 104.880000000, 2.533333333, 0.000000000
280, 106.260000000, 2.533333333, 0.000000000
281, 107.640000000, 2.533333333, 0.000000000
282, 109.020000000, 2.533333333, 0.000000000
283, 110.400000000, 2.533333333, 0.000000000
284, 111.780000000, 2.533333333, 0.000000000
285, 113.160000000, 2.533333333, 0.000000000
286, 114.540000000, 2.533333333, 0.000000000
287, 115.920000000, 2.533333333, 0.000000000
288, 117.300000000, 2.533333333, 0.000000000
289, 118.680000000, 2.533333333, 0.000000000
290, 120.060000000, 2.533333333, 0.000000000
291, 121.440000000, 2.533333333, 0.000000000
292, 122.820000000, 2.533333333, 0.000000000
293, 124.200000000, 2.533333333, 0.000000000
294, 125.580000000, 2.533333333, 0.000000000
295, 126.960000000, 2.533333333, 0.000000000
296, 128.340000000, 2.533333333, 0.000000000
297, 129.720000000, 2.533333333, 0.000000000
298, 131.100000000, 2.533333333, 0.000000000
299, 132.480000000, 2.533333333, 0.000000000
300, 133.860000000, 2.533333333, 0.000000000
301, 135.240000000, 2.533333333, 0.000000000
302, 136.620000000, 2.533333333, 0.000000000
303, 138.000000000, 2.533333333, 0.000000000
304, 0.000000000, 3.800000000, 0.000000000
305, 1.380000000, 3.800000000, 0.000000000
306, 2.760000000, 3.800000000, 0.000000000
307, 4.140000000, 3.800000000, 0.000000000
308, 5.520000000, 3.800000000, 0.000000000
309, 6.900000000, 3.800000000, 0.000000000
310, 8.280000000, 3.800000000, 0.000000000
311, 9.660000000, 3.800000000, 0.000000000
312, 11.040000000, 3.800000000, 0.000000000
313, 12.420000000, 3.800000000, 0.000000000
314, 13.800000000, 3.800000000, 0.000000000
315, 15.180000000, 3.800000000, 0.000000000
316, 16.560000000, 3.800000000, 0.000000000
317, 17.940000000, 3.800000000, 0.000000000
318, 19.320000000, 3.800000000, 0.000000000
319, 20.700000000, 3.800000000, 0.000000000
320, 22.080000000, 3.800000000, 0.000000000
321, 23.460000000, 3.800000000, 0.000000000
322, 24.840000000, 3.800000000, 0.000000000
323, 26.220000000, 3.800000000, 0.000000000
324, 27.600000000, 3.800000000, 0.000000000
325, 28.980000000, 3.800000000, 0.000000000
326, 30.360000000, 3.800000000, 0.000000000
327, 31.740000000, 3.800000000, 0.000000000
328, 33.120000000, 3.800000000, 0.000000000
329, 34.500000000, 3.800000000, 0.000000000
330, 35.880000000, 3.800000000, 0.000000000
331, 37.260000000, 3.800000000, 0.000000000
332, 38.640000000, 3.800000000, 0.000000000
333, 40.020000000, 3.800000000, 0.000000000
334, 41.400000000, 3.800000000, 0.000000000
335, 42.780000000, 3.800000000, 0.000000000
336, 44.160000000, 3.800000000, 0.000000000
337, 45.540000000, 3.800000000, 0.000000000
338, 46.920000000, 3.800000000, 0.000000000
339, 48.300000000, 3.800000000, 0.000000000
340, 49.680000000, 3.800000000, 0.000000000
341, 51.060000000, 3.800000000, 0.000000000
342, 52.440000000, 3.800000000, 0.000000000
343, 53.820000000, 3.800000000, 0.000000000
344, 55.200000000, 3.800000000, 0.000000000
345, 56.580000000, 3.800000000, 0.000000000
346, 57.960000000, 3.800000000, 0.000000000
347, 59.340000000, 3.800000000, 0.000000000
348, 60.720000000, 3.800000000, 0.000000000
349, 62.100000000, 3.800000000, 0.000000000
350, 63.480000000, 3.800000000, 0.000000000
351, 64.860000000, 3.800000000, 0.000000000
352, 66.240000000, 3.800000000, 0.000000000
353, 67.620000000, 3.800000000, 0.000000000
354, 69.000000000, 3.800000000, 0.000000000
355, 70.380000000, 3.800000000, 0.000000000
356, 71.760000000, 3.800000000, 0.000000000
357, 73.140000000, 3.800000000, 0.000000000
358, 74.520000000, 3.800000000, 0.000000000
359, 75.900000000, 3.800000000, 0.000000000
360, 77.280000000, 3.800000000, 0.000000000
361, 78.660000000, 3.800000000, 0.000000000
362, 80.040000000, 3.800000000, 0.000000000
363, 81.420000000, 3.800000000, 0.000000000
364, 82.800000000, 3.800000000, 0.000000000
365, 84.180000000, 3.800000000, 0.000000000
366, 85.560000000, 3.800000000, 0.000000000
367, 86.940000000, 3.800000000, 0.000000000
368, 88.320000000, 3.800000000, 0.000000000
369, 89.700000000, 3.800000000, 0.000000000
370, 91.080000000, 3.800000000, 0.000000000
371, 92.460000000, 3.800000000, 0.000000000
372, 93.840000000, 3.800000000, 0.000000000
373, 95.220000000, 3.800000000, 0.000000000
374, 96.600000000, 3.800000000, 0.000000000
375, 97.980000000, 3.800000000, 0.000000000
376, 99.360000000, 3.800000000, 0.000000000
377, 100.740000000, 3.800000000, 0.000000000
378, 102.120000000, 3.800000000, 0.000000000
379, 103.500000000, 3.800000000, 0.000000000
380, 104.880000000, 3.800000000, 0.000000000
381, 106.260000000, 3.800000000, 0.000000000
382, 107.640000000, 3.800000000, 0.000000000
383, 109.020000000, 3.800000000, 0.000000000
384, 110.400000000, 3.800000000, 0.000000000
385, 111.780000000, 3.800000000, 0.000000000
386, 113.160000000, 3.800000000, 0.000000000
387, 114.540000000, 3.800000000, 0.000000000
388, 115.920000000, 3.800000000, 0.000000000
389, 117.300000000, 3.800000000, 0.000000000
390, 118.680000000, 3.800000000, 0.000000000
391, 120.060000000, 3.800000000, 0.000000000
392, 121.440000000, 3.800000000, 0.000000000
393, 122.820000000, 3.800000000, 0.000000000
394, 124.200000000, 3.800000000, 0.000000000
395, 125.580000000, 3.800000000, 0.000000000
396, 126.960000000, 3.800000000, 0.000000000
397, 128.340000000, 3.800000000, 0.000000000
398, 129.720000000, 3.800000000, 0.000000000
399, 131.100000000, 3.800000000, 0.000000000
400, 132.480000000, 3.800000000, 0.000000000
401, 133.860000000, 3.800000000, 0.000000000
402, 135.240000000, 3.800000000, 0.000000000
403, 136.620000000, 3.800000000, 0.000000000
404, 138.000000000, 3.800000000, 0.000000000
405, 0.000000000, 5.066666667, 0.000000000
406, 1.380000000, 5.066666667, 0.000000000
407, 2.760000000, 5.066666667, 0.000000000
408, 4.140000000, 5.066666667, 0.000000000
409, 5.520000000, 5.066666667, 0.000000000
410, 6.900000000, 5.066666667, 0.000000000
411, 8.280000000, 5.066666667, 0.000000000
412, 9.660000000, 5.066666667, 0.000000000
413, 11.040000000, 5.066666667, 0.000000000
414, 12.420000000, 5.066666667, 0.000000000
415, 13.800000000, 5.066666667, 0.000000000
416, 15.180000000, 5.066666667, 0.000000000
417, 16.560000000, 5.066666667, 0.000000000
418, 17.940000000, 5.066666667, 0.000000000
419, 19.320000000, 5.066666667, 0.000000000
420, 20.700000000, 5.066666667, 0.000000000
421, 22.080000000, 5.066666667, 0.000000000
422, 23.460000000, 5.066666667, 0.000000000
423, 24.840000000, 5.066666667, 0.000000000
424, 26.220000000, 5.066666667, 0.000000000
425, 27.600000000, 5.066666667, 0.000000000
426, 28.980000000, 5.066666667, 0.000000000
427, 30.360000000, 5.066666667, 0.000000000
428, 31.740000000, 5.066666667, 0.000000000
429, 33.120000000, 5.066666667, 0.000000000
430, 34.500000000, 5.066666667, 0.000000000
431, 35.880000000, 5.066666667, 0.000000000
432, 37.260000000, 5.066666667, 0.000000000
433, 38.640000000, 5.066666667, 0.000000000
434, 40.020000000, 5.066666667, 0.000000000
435, 41.400000000, 5.066666667, 0.000000000
436, 42.780000000, 5.066666667, 0.000000000
437, 44.160000000, 5.066666667, 0.000000000
438, 45.540000000, 5.066666667, 0.000000000
439, 46.920000000, 5.066666667, 0.000000000
440, 48.300000000, 5.066666667, 0.000000000
441, 49.680000000, 5.066666667, 0.000000000
442, 51.060000000, 5.066666667, 0.000000000
443, 52.440000000, 5.066666667, 0.000000000
444, 53.820000000, 5.066666667, 0.000000000
445, 55.200000000, 5.066666667, 0.000000000
446, 56.580000000, 5.066666667, 0.000000000
447, 57.960000000, 5.066666667, 0.000000000
448, 59.340000000, 5.066666667, 0.000000000
449, 60.720000000, 5.066666667, 0.000000000
450, 62.100000000, 5.066666667, 0.000000000
451, 63.480000000, 5.066666667, 0.000000000
452, 64.860000000, 5.066666667, 0.000000000
453, 66.240000000, 5.066666667, 0.000000000
454, 67.620000000, 5.066666667, 0.000000000
455, 69.000000000, 5.066666667, 0.000000000
456, 70.380000000, 5.066666667, 0.000000000
457, 71.760000000, 5.066666667, 0.000000000
458, 73.140000000, 5.066666667, 0.000000000
459, 74.520000000, 5.066666667, 0.000000000
460, 75.900000000, 5.066666667, 0.000000000
461, 77.280000000, 5.066666667, 0.000000000
462, 78.660000000, 5.066666667, 0.000000000
463, 80.040000000, 5.066666667, 0.000000000
464, 81.420000000, 5.066666667, 0.000000000
465, 82.800000000, 5.066666667, 0.000000000
466, 84.180000000, 5.066666667, 0.000000000
467, 85.560000000, 5.066666667, 0.000000000
468, 86.940000000, 5.066666667, 0.000000000
469, 88.320000000, 5.066666667, 0.000000000
470, 89.700000000, 5.066666667, 0.000000000
471, 91.080000000, 5.066666667, 0.000000000
472, 92.460000000, 5.066666667, 0.000000000
473, 93.840000000, 5.066666667, 0.000000000
474, 95.220000000, 5.066666667, 0.000000000
475, 96.600000000, 5.066666667, 0.000000000
476, 97.980000000, 5.066666667, 0.000000000
477, 99.360000000, 5.066666667, 0.000000000
478, 100.740000000, 5.066666667, 0.000000000
479, 102.120000000, 5.066666667, 0.000000000
480, 103.500000000, 5.066666667, 0.000000000
481, 104.880000000, 5.066666667, 0.000000000
482, 106.260000000, 5.066666667, 0.000000000
483, 107.640000000, 5.066666667, 0.000000000
484, 109.020000000, 5.066666667, 0.000000000
485, 110.400000000, 5.066666667, 0.000000000
486, 111.780000000, 5.066666667, 0.000000000
487, 113.160000000, 5.066666667, 0.000000000
488, 114.540000000, 5.066666667, 0.000000000
489, 115.920000000, 5.066666667, 0.000000000
490, 117.300000000, 5.066666667, 0.000000000
491, 118.680000000, 5.066666667, 0.000000000
492, 120.060000000, 5.066666667, 0.000000000
493, 121.440000000, 5.066666667, 0.000000000
494, 122.820000000, 5.066666667, 0.000000000
495, 124.200000000, 5.066666667, 0.000000000
496, 125.580000000, 5.066666667, 0.000000000
497, 126.960000000, 5.066666667, 0.000000000
498, 128.340000000, 5.066666667, 0.000000000
499, 129.720000000, 5.066666667, 0.000000000
500, 131.100000000, 5.066666667, 0.000000000
501, 132.480000000, 5.066666667, 0.000000000
502, 133.860000000, 5.066666667, 0.000000000
503, 135.240000000, 5.066666667, 0.000000000
504, 136.620000000, 5.066666667, 0.000000000
505, 138.000000000, 5.066666667, 0.000000000
506, 0.000000000, 6.333333333, 0.000000000
507, 1.380000000, 6.333333333, 0.000000000
508, 2.760000000, 6.333333333, 0.000000000
509, 4.140000000, 6.333333333, 0.000000000
510, 5.520000000, 6.333333333, 0.000000000
511, 6.900000000, 6.333333333, 0.000000000
512, 8.280000000, 6.333333333, 0.000000000
513, 9.660000000, 6.333333333, 0.000000000
514, 11.040000000, 6.333333333, 0.000000000
515, 12.420000000, 6.333333333, 0.000000000
516, 13.800000000, 6.333333333, 0.000000000
517, 15.180000000, 6.333333333, 0.000000000
518, 16.560000000, 6.333333333, 0.000000000
519, 17.940000000, 6.333333333, 0.000000000
520, 19.320000000, 6.333333333, 0.000000000
521, 20.700000000, 6.333333333, 0.000000000
522, 22.080000000, 6.333333333, 0.000000000
523, 23.460000000, 6.333333333, 0.000000000
524, 24.840000000, 6.333333333, 0.000000000
525, 26.220000000, 6.333333333, 0.000000000
526, 27.600000000, 6.333333333, 0.000000000
527, 28.980000000, 6.333333333, 0.000000000
528, 30.360000000, 6.333333333, 0.000000000
529, 31.740000000, 6.333333333, 0.000000000
530, 33.120000000, 6.333333333, 0.000000000
531, 34.500000000, 6.333333333, 0.000000000
532, 35.880000000, 6.333333333, 0.000000000
533, 37.260000000, 6.333333333, 0.000000000
534, 38.640000000, 6.333333333, 0.000000000
535, 40.020000000, 6.333333333, 0.000000000
536, 41.400000000, 6.333333333, 0.000000000
537, 42.780000000, 6.333333333, 0.000000000
538, 44.160000000, 6.333333333, 0.000000000
539, 45.540000000, 6.333333333, 0.000000000
540, 46.920000000, 6.333333333, 0.000000000
541, 48.300000000, 6.333333333, 0.000000000
542, 49.680000000, 6.333333333, 0.000000000
543, 51.060000000, 6.333333333, 0.000000000
544, 52.440000000, 6.333333333, 0.000000000
545, 53.820000000, 6.333333333, 0.000000000
546, 55.200000000, 6.333333333, 0.000000000
547, 56.580000000, 6.333333333, 0.000000000
548, 57.960000000, 6.333333333, 0.000000000
549, 59.340000000, 6.333333333, 0.000000000
550, 60.720000000, 6.333333333, 0.000000000
551, 62.100000000, 6.333333333, 0.000000000
552, 63.480000000, 6.333333333, 0.000000000
553, 64.860000000, 6.333333333, 0.000000000
554, 66.240000000, 6.333333333, 0.000000000
555, 67.620000000, 6.333333333, 0.000000000
556, 69.000000000, 6.333333333, 0.000000000
557, 70.380000000, 6.333333333, 0.000000000
558, 71.760000000, 6.333333333, 0.000000000
559, 73.140000000, 6.333333333, 0.000000000
560, 74.520000000, 6.333333333, 0.000000000
561, 75.900000000, 6.333333333, 0.000000000
562, 77.280000000, 6.333333333, 0.000000000
563, 78.660000000, 6.333333333, 0.000000000
564, 80.040000000, 6.333333333, 0.000000000
565, 81.420000000, 6.333333333, 0.000000000
566, 82.800000000, 6.333333333, 0.000000000
567, 84.180000000, 6.333333333, 0.000000000
568, 85.560000000, 6.333333333, 0.000000000
569, 86.940000000, 6.333333333, 0.000000000
570, 88.320000000, 6.333333333, 0.000000000
571, 89.700000000, 6.333333333, 0.000000000
572, 91.080000000, 6.333333333, 0.000000000
573, 92.460000000, 6.333333333, 0.000000000
574, 93.840000000, 6.333333333, 0.000000000
575, 95.220000000, 6.333333333, 0.000000000
576, 96.600000000, 6.333333333, 0.000000000
577, 97.980000000, 6.333333333, 0.000000000
578, 99.360000000, 6.333333333, 0.000000000
579, 100.740000000, 6.333333333, 0.000000000
580, 102.120000000, 6.333333333, 0.000000000
581, 103.500000000, 6.333333333, 0.000000000
582, 104.880000000, 6.333333333, 0.000000000
583, 106.260000000, 6.333333333, 0.000000000
584, 107.640000000, 6.333333333, 0.000000000
585, 109.020000000, 6.333333333, 0.000000000
586, 110.400000000, 6.333333333, 0.000000000
587, 111.780000000, 6.333333333, 0.000000000
588, 113.160000000, 6.333333333, 0.000000000
589, 114.540000000, 6.333333333, 0.000000000
590, 115.920000000, 6.333333333, 0.000000000
591, 117.300000000, 6.333333333, 0.000000000
592, 118.680000000, 6.333333333, 0.000000000
593, 120.060000000, 6.333333333, 0.000000000
594, 121.440000000, 6.333333333, 0.000000000
595, 122.820000000, 6.333333333, 0.000000000
596, 124.200000000, 6.333333333, 0.000000000
597, 125.580000000, 6.333333333, 0.000000000
598, 126.960000000, 6.333333333, 0.000000000
599, 128.340000000, 6.333333333, 0.000000000
600, 129.720000000, 6.333333333, 0.000000000
601, 131.100000000, 6.333333333, 0.000000000
602, 132.480000000, 6.333333333, 0.000000000
603, 133.860000000, 6.333333333, 0.000000000
604, 135.240000000, 6.333333333, 0.000000000
605, 136.620000000, 6.333333333, 0.000000000
606, 138.000000000, 6.333333333, 0.000000000
607, 0.000000000, 7.600000000, 0.000000000
608, 1.380000000, 7.600000000, 0.000000000
609, 2.760000000, 7.600000000, 0.000000000
610, 4.140000000, 7.600000000, 0.000000000
611, 5.520000000, 7.600000000, 0.000000000
612, 6.900000000, 7.600000000, 0.000000000
613, 8.280000000, 7.600000000, 0.000000000
614, 9.660000000, 7.600000000, 0.000000000
615, 11.040000000, 7.600000000, 0.000000000
616, 12.420000000, 7.600000000, 0.000000000
617, 13.800000000, 7.600000000, 0.000000000
618, 15.180000000, 7.600000000, 0.000000000
619, 16.560000000, 7.600000000, 0.000000000
620, 17.940000000, 7.600000000, 0.000000000
621, 19.320000000, 7.600000000, 0.000000000
622, 20.700000000, 7.600000000, 0.000000000
623, 22.080000000, 7.600000000, 0.000000000
624, 23.460000000, 7.600000000, 0.000000000
625, 24.840000000, 7.600000000, 0.000000000
626, 26.220000000, 7.600000000, 0.000000000
627, 27.600000000, 7.600000000, 0.000000000
628, 28.980000000, 7.600000000, 0.000000000
629, 30.360000000, 7.600000000, 0.000000000
630, 31.740000000, 7.600000000, 0.000000000
631, 33.120000000, 7.600000000, 0.000000000
632, 34.500000000, 7.600000000, 0.000000000
633, 35.880000000, 7.600000000, 0.000000000
634, 37.260000000, 7.600000000, 0.000000000
635, 38.640000000, 7.600000000, 0.000000000
636, 40.020000000, 7.600000000, 0.000000000
637, 41.400000000, 7.600000000, 0.000000000
638, 42.780000000, 7.600000000, 0.000000000
639, 44.160000000, 7.600000000, 0.000000000
640, 45.540000000, 7.600000000, 0.000000000
641, 46.920000000, 7.600000000, 0.000000000
642, 48.300000000, 7.600000000, 0.000000000
643, 49.680000000, 7.600000000, 0.000000000
644, 51.060000000, 7.600000000, 0.000000000
645, 52.440000000, 7.600000000, 0.000000000
646, 53.820000000, 7.600000000, 0.000000000
647, 55.200000000, 7.600000000, 0.000000000
648, 56.580000000, 7.600000000, 0.000000000
649, 57.960000000, 7.600000000, 0.000000000
650, 59.340000000, 7.600000000, 0.000000000
651, 60.720000000, 7.600000000, 0.000000000
652, 62.100000000, 7.600000000, 0.000000000
653, 63.480000000, 7.600000000, 0.000000000
654, 64.860000000, 7.600000000, 0.000000000
655, 66.240000000, 7.600000000, 0.000000000
656, 67.620000000, 7.600000000, 0.000000000
657, 69.000000000, 7.600000000, 0.000000000
658, 70.380000000, 7.600000000, 0.000000000
659, 71.760000000, 7.600000000, 0.000000000
660, 73.140000000, 7.600000000, 0.000000000
661, 74.520000000, 7.600000000, 0.000000000
662, 75.900000000, 7.600000000, 0.000000000
663, 77.280000000, 7.600000000, 0.000000000
664, 78.660000000, 7.600000000, 0.000000000
665, 80.040000000, 7.600000000, 0.000000000
666, 81.420000000, 7.600000000, 0.000000000
667, 82.800000000, 7.600000000, 0.000000000
668, 84.180000000, 7.600000000, 0.000000000
669, 85.560000000, 7.600000000, 0.000000000
670, 86.940000000, 7.600000000, 0.000000000
671, 88.320000000, 7.600000000, 0.000000000
672, 89.700000000, 7.600000000, 0.000000000
673, 91.080000000, 7.600000000, 0.000000000
674, 92.460000000, 7.600000000, 0.000000000
675, 93.840000000, 7.600000000, 0.000000000
676, 95.220000000, 7.600000000, 0.000000000
677, 96.600000000, 7.600000000, 0.000000000
678, 97.980000000, 7.600000000, 0.000000000
679, 99.360000000, 7.600000000, 0.000000000
680, 100.740000000, 7.600000000, 0.000000000
681, 102.120000000, 7.600000000, 0.000000000
682, 103.500000000, 7.600000000, 0.000000000
683, 104.880000000, 7.600000000, 0.000000000
684, 106.260000000, 7.600000000, 0.000000000
685, 107.640000000, 7.600000000, 0.000000000
686, 109.020000000, 7.600000000, 0.000000000
687, 110.400000000, 7.600000000, 0.000000000
688, 111.780000000, 7.600000000, 0.000000000
689, 113.160000000, 7.600000000, 0.000000000
690, 114.540000000, 7.600000000, 0.000000000
691, 115.920000000, 7.600000000, 0.000000000
692, 117.300000000, 7.600000000, 0.000000000
693, 118.680000000, 7.600000000, 0.000000000
694, 120.060000000, 7.600000000, 0.000000000
695, 121.440000000, 7.600000000, 0.000000000
696, 122.820000000, 7.600000000, 0.000000000
697, 124.200000000, 7.600000000, 0.000000000
698, 125.580000000, 7.600000000, 0.000000000
699, 126.960000000, 7.600000000, 0.000000000
700, 128.340000000, 7.600000000, 0.000000000
701, 129.720000000, 7.600000000, 0.000000000
702, 131.100000000, 7.600000000, 0.000000000
703, 132.480000000, 7.600000000, 0.000000000
704, 133.860000000, 7.600000000, 0.000000000
705, 135.240000000, 7.600000000, 0.000000000
706, 136.620000000, 7.600000000, 0.000000000
707, 138.000000000, 7.600000000, 0.000000000
708, 0.000000000, 8.866666667, 0.000000000
709, 1.380000000, 8.866666667, 0.000000000
710, 2.760000000, 8.866666667, 0.000000000
711, 4.140000000, 8.866666667, 0.000000000
712, 5.520000000, 8.866666667, 0.000000000
713, 6.900000000, 8.866666667, 0.000000000
714, 8.280000000, 8.866666667, 0.000000000
715, 9.660000000, 8.866666667, 0.000000000
716, 11.040000000, 8.866666667, 0.000000000
717, 12.420000000, 8.866666667, 0.000000000
718, 13.800000000, 8.866666667, 0.000000000
719, 15.180000000, 8.866666667, 0.000000000
720, 16.560000000, 8.866666667, 0.000000000
721, 17.940000000, 8.866666667, 0.000000000
722, 19.320000000, 8.866666667, 0.000000000
723, 20.700000000, 8.866666667, 0.000000000
724, 22.080000000, 8.866666667, 0.000000000
725, 23.460000000, 8.866666667, 0.000000000
726, 24.840000000, 8.866666667, 0.000000000
727, 26.220000000, 8.866666667, 0.000000000
728, 27.600000000, 8.866666667, 0.000000000
729, 28.980000000, 8.866666667, 0.000000000
730, 30.360000000, 8.866666667, 0.000000000
731, 31.740000000, 8.866666667, 0.000000000
732, 33.120000000, 8.866666667, 0.000000000
733, 34.500000000, 8.866666667, 0.000000000
734, 35.880000000, 8.866666667, 0.000000000
735, 37.260000000, 8.866666667, 0.000000000
736, 38.640000000, 8.866666667, 0.000000000
737, 40.020000000, 8.866666667, 0.000000000
738, 41.400000000, 8.866666667, 0.000000000
739, 42.780000000, 8.866666667, 0.000000000
740, 44.160000000, 8.866666667, 0.000000000
741, 45.540000000, 8.866666667, 0.000000000
742, 46.920000000, 8.866666667, 0.000000000
743, 48.300000000, 8.866666667, 0.000000000
744, 49.680000000, 8.866666667, 0.000000000
745, 51.060000000, 8.866666667, 0.000000000
746, 52.440000000, 8.866666667, 0.000000000
747, 53.820000000, 8.866666667, 0.000000000
748, 55.200000000, 8.866666667, 0.000000000
749, 56.580000000, 8.866666667, 0.000000000
750, 57.960000000, 8.866666667, 0.000000000
751, 59.340000000, 8.866666667, 0.000000000
752, 60.720000000, 8.866666667, 0.000000000
753, 62.100000000, 8.866666667, 0.000000000
754, 63.480000000, 8.866666667, 0.000000000
755, 64.860000000, 8.866666667, 0.000000000
756, 66.240000000, 8.866666667, 0.000000000
757, 67.620000000, 8.866666667, 0.000000000
758, 69.000000000, 8.866666667, 0.000000000
759, 70.380000000, 8.866666667, 0.000000000
760, 71.760000000, 8.866666667, 0.000000000
761, 73.140000000, 8.866666667, 0.000000000
762, 74.520000000, 8.866666667, 0.000000000
763, 75.900000000, 8.866666667, 0.000000000
764, 77.280000000, 8.866666667, 0.000000000
765, 78.660000000, 8.866666667, 0.000000000
766, 80.040000000, 8.866666667, 0.000000000
767, 81.420000000, 8.866666667, 0.000000000
768, 82.800000000, 8.866666667, 0.000000000
769, 84.180000000, 8.866666667, 0.000000000
770, 85.560000000, 8.866666667, 0.000000000
771, 86.940000000, 8.866666667, 0.000000000
772, 88.320000000, 8.866666667, 0.000000000
773, 89.700000000, 8.866666667, 0.000000000
774, 91.080000000, 8.866666667, 0.000000000
775, 92.460000000, 8.866666667, 0.000000000
776, 93.840000000, 8.866666667, 0.000000000
777, 95.220000000, 8.866666667, 0.000000000
778, 96.600000000, 8.866666667, 0.000000000
779, 97.980000000, 8.866666667, 0.000000000
780, 99.360000000, 8.866666667, 0.000000000
781, 100.740000000, 8.866666667, 0.000000000
782, 102.120000000, 8.866666667, 0.000000000
783, 103.500000000, 8.866666667, 0.000000000
784, 104.880000000, 8.866666667, 0.000000000
785, 106.260000000, 8.866666667, 0.000000000
786, 107.640000000, 8.866666667, 0.000000000
787, 109.020000000, 8.866666667, 0.000000000
788, 110.400000000, 8.866666667, 0.000000000
789, 111.780000000, 8.866666667, 0.000000000
790, 113.160000000, 8.866666667, 0.000000000
791, 114.540000000, 8.866666667, 0.000000000
792, 115.920000000, 8.866666667, 0.000000000
793, 117.300000000, 8.866666667, 0.000000000
794, 118.680000000, 8.866666667, 0.000000000
795, 120.060000000, 8.866666667, 0.000000000
796, 121.440000000, 8.866666667, 0.000000000
797, 122.820000000, 8.866666667, 0.000000000
798, 124.200000000, 8.866666667, 0.000000000
799, 125.580000000, 8.866666667, 0.000000000
800, 126.960000000, 8.866666667, 0.000000000
801, 128.340000000, 8.866666667, 0.000000000
802, 129.720000000, 8.866666667, 0.000000000
803, 131.100000000, 8.866666667, 0.000000000
804, 132.480000000, 8.866666667, 0.000000000
805, 133.860000000, 8.866666667, 0.000000000
806, 135.240000000, 8.866666667, 0.000000000
807, 136.620000000, 8.866666667, 0.000000000
808, 138.000000000, 8.866666667, 0.000000000
809, 0.000000000, 10.133333333, 0.000000000
810, 1.380000000, 10.133333333, 0.000000000
811, 2.760000000, 10.133333333, 0.000000000
812, 4.140000000, 10.133333333, 0.000000000
813, 5.520000000, 10.133333333, 0.000000000
814, 6.900000000, 10.133333333, 0.000000000
815, 8.280000000, 10.133333333, 0.000000000
816, 9.660000000, 10.133333333, 0.000000000
817, 11.040000000, 10.133333333, 0.000000000
818, 12.420000000, 10.133333333, 0.000000000
819, 13.800000000, 10.133333333, 0.000000000
820, 15.180000000, 10.133333333, 0.000000000
821, 16.560000000, 10.133333333, 0.000000000
822, 17.940000000, 10.133333333, 0.000000000
823, 19.320000000, 10.133333333, 0.000000000
824, 20.700000000, 10.133333333, 0.000000000
825, 22.080000000, 10.133333333, 0.000000000
826, 23.460000000, 10.133333333, 0.000000000
827, 24.840000000, 10.133333333, 0.000000000
828, 26.220000000, 10.133333333, 0.000000000
829, 27.600000000, 10.133333333, 0.000000000
830, 28.980000000, 10.133333333, 0.000000000
831, 30.360000000, 10.133333333, 0.000000000
832, 31.740000000, 10.133333333, 0.000000000
833, 33.120000000, 10.133333333, 0.000000000
834, 34.500000000, 10.133333333, 0.000000000
835, 35.880000000, 10.133333333, 0.000000000
836, 37.260000000, 10.133333333, 0.000000000
837, 38.640000000, 10.133333333, 0.000000000
838, 40.020000000, 10.133333333, 0.000000000
839, 41.400000000, 10.133333333, 0.000000000
840, 42.780000000, 10.133333333, 0.000000000
841, 44.160000000, 10.133333333, 0.000000000
842, 45.540000000, 10.133333333, 0.000000000
843, 46.920000000, 10.133333333, 0.000000000
844, 48.300000000, 10.133333333, 0.000000000
845, 49.680000000, 10.133333333, 0.000000000
846, 51.060000000, 10.133333333, 0.000000000
847, 52.440000000, 10.133333333, 0.000000000
848, 53.820000000, 10.133333333, 0.000000000
849, 55.200000000, 10.133333333, 0.000000000
850, 56.580000000, 10.133333333, 0.000000000
851, 57.960000000, 10.133333333, 0.000000000
852, 59.340000000, 10.133333333, 0.000000000
853, 60.720000000, 10.133333333, 0.000000000
854, 62.100000000, 10.133333333, 0.000000000
855, 63.480000000, 10.133333333, 0.000000000
856, 64.860000000, 10.133333333, 0.000000000
857, 66.240000000, 10.133333333, 0.000000000
858, 67.620000000, 10.133333333, 0.000000000
859, 69.000000000, 10.133333333, 0.000000000
860, 70.380000000, 10.133333333, 0.000000000
861, 71.760000000, 10.133333333, 0.000000000
862, 73.140000000, 10.133333333, 0.000000000
863, 74.520000000, 10.133333333, 0.000000000
864, 75.900000000, 10.133333333, 0.000000000
865, 77.280000000, 10.133333333, 0.000000000
866, 78.660000000, 10.133333333, 0.000000000
867, 80.040000000, 10.133333333, 0.000000000
868, 81.420000000, 10.133333333, 0.000000000
869, 82.800000000, 10.133333333, 0.000000000
870, 84.180000000, 10.133333333, 0.000000000
871, 85.560000000, 10.133333333, 0.000000000
872, 86.940000000, 10.133333333, 0.000000000
873, 88.320000000, 10.133333333, 0.000000000
874, 89.700000000, 10.133333333, 0.000000000
875, 91.080000000, 10.133333333, 0.000000000
876, 92.460000000, 10.133333333, 0.000000000
877, 93.840000000, 10.133333333, 0.000000000
878, 95.220000000, 10.133333333, 0.000000000
879, 96.600000000, 10.133333333, 0.000000000
880, 97.980000000, 10.133333333, 0.000000000
881, 99.360000000, 10.133333333, 0.000000000
882, 100.740000000, 10.133333333, 0.000000000
883, 102.120000000, 10.133333333, 0.000000000
884, 103.500000000, 10.133333333, 0.000000000
885, 104.880000000, 10.133333333, 0.000000000
886, 106.260000000, 10.133333333, 0.000000000
887, 107.640000000, 10.133333333, 0.000000000
888, 109.020000000, 10.133333333, 0.000000000
889, 110.400000000, 10.133333333, 0.000000000
890, 111.780000000, 10.133333333, 0.000000000
891, 113.160000000, 10.133333333, 0.000000000
892, 114.540000000, 10.133333333, 0.000000000
893, 115.920000000, 10.133333333, 0.000000000
894, 117.300000000, 10.133333333, 0.000000000
895, 118.680000000, 10.133333333, 0.000000000
896, 120.060000000, 10.133333333, 0.000000000
897, 121.440000000, 10.133333333, 0.000000000
898, 122.820000000, 10.133333333, 0.000000000
899, 124.200000000, 10.133333333, 0.000000000
900, 125.580000000, 10.133333333, 0.000000000
901, 126.960000000, 10.133333333, 0.000000000
902, 128.340000000, 10.133333333, 0.000000000
903, 129.720000000, 10.133333333, 0.000000000
904, 131.100000000, 10.133333333, 0.000000000
905, 132.480000000, 10.133333333, 0.000000000
906, 133.860000000, 10.133333333, 0.000000000
907, 135.240000000, 10.133333333, 0.000000000
908, 136.620000000, 10.133333333, 0.000000000
909, 138.000000000, 10.133333333, 0.000000000
910, 0.000000000, 11.400000000, 0.000000000
911, 1.380000000, 11.400000000, 0.000000000
912, 2.760000000, 11.400000000, 0.000000000
913, 4.140000000, 11.400000000, 0.000000000
914, 5.520000000, 11.400000000, 0.000000000
915, 6.900000000, 11.400000000, 0.000000000
916, 8.280000000, 11.400000000, 0.000000000
917, 9.660000000, 11.400000000, 0.000000000
918, 11.040000000, 11.400000000, 0.000000000
919, 12.420000000, 11.400000000, 0.000000000
920, 13.800000000, 11.400000000, 0.000000000
921, 15.180000000, 11.400000000, 0.000000000
922, 16.560000000, 11.400000000, 0.000000000
923, 17.940000000, 11.400000000, 0.000000000
924, 19.320000000, 11.400000000, 0.000000000
925, 20.700000000, 11.400000000, 0.000000000
926, 22.080000000, 11.400000000, 0.000000000
927, 23.460000000, 11.400000000, 0.000000000
928, 24.840000000, 11.400000000, 0.000000000
929, 26.220000000, 11.400000000, 0.000000000
930, 27.600000000, 11.400000000, 0.000000000
931, 28.980000000, 11.400000000, 0.000000000
932, 30.360000000, 11.400000000, 0.000000000
933, 31.740000000, 11.400000000, 0.000000000
934, 33.120000000, 11.400000000, 0.000000000
935, 34.500000000, 11.400000000, 0.000000000
936, 35.880000000, 11.400000000, 0.000000000
937, 37.260000000, 11.400000000, 0.000000000
938, 38.640000000, 11.400000000, 0.000000000
939, 40.020000000, 11.400000000, 0.000000000
940, 41.400000000, 11.400000000, 0.000000000
941, 42.780000000, 11.400000000, 0.000000000
942, 44.160000000, 11.400000000, 0.000000000
943, 45.540000000, 11.400000000, 0.000000000
944, 46.920000000, 11.400000000, 0.000000000
945, 48.300000000, 11.400000000, 0.000000000
946, 49.680000000, 11.400000000, 0.000000000
947, 51.060000000, 11.400000000, 0.000000000
948, 52.440000000, 11.400000000, 0.000000000
949, 53.820000000, 11.400000000, 0.000000000
950, 55.200000000, 11.400000000, 0.000000000
951, 56.580000000, 11.400000000, 0.000000000
952, 57.960000000, 11.400000000, 0.000000000
953, 59.340000000, 11.400000000, 0.000000000
954, 60.720000000, 11.400000000, 0.000000000
955, 62.100000000, 11.400000000, 0.000000000
956, 63.480000000, 11.400000000, 0.000000000
957, 64.860000000, 11.400000000, 0.000000000
958, 66.240000000, 11.400000000, 0.000000000
959, 67.620000000, 11.400000000, 0.000000000
960, 69.000000000, 11.400000000, 0.000000000
961, 70.380000000, 11.400000000, 0.000000000
962, 71.760000000, 11.400000000, 0.000000000
963, 73.140000000, 11.400000000, 0.000000000
964, 74.520000000, 11.400000000, 0.000000000
965, 75.900000000, 11.400000000, 0.000000000
966, 77.280000000, 11.400000000, 0.000000000
967, 78.660000000, 11.400000000, 0.000000000
968, 80.040000000, 11.400000000, 0.000000000
969, 81.420000000, 11.400000000, 0.000000000
970, 82.800000000, 11.400000000, 0.000000000
971, 84.180000000, 11.400000000, 0.000000000
972, 85.560000000, 11.400000000, 0.000000000
973, 86.940000000, 11.400000000, 0.000000000
974, 88.320000000, 11.400000000, 0.000000000
975, 89.700000000, 11.400000000, 0.000000000
976, 91.080000000, 11.400000000, 0.000000000
977, 92.460000000, 11.400000000, 0.000000000
978, 93.840000000, 11.400000000, 0.000000000
979, 95.220000000, 11.400000000, 0.000000000
980, 96.600000000, 11.400000000, 0.000000000
981, 97.980000000, 11.400000000, 0.000000000
982, 99.360000000, 11.400000000, 0.000000000
983, 100.740000000, 11.400000000, 0.000000000
984, 102.120000000, 11.400000000, 0.000000000
985, 103.500000000, 11.400000000, 0.000000000
986, 104.880000000, 11.400000000, 0.000000000
987, 106.260000000, 11.400000000, 0.000000000
988, 107.640000000, 11.400000000, 0.000000000
989, 109.020000000, 11.400000000, 0.000000000
990, 110.400000000, 11.400000000, 0.000000000
991, 111.780000000, 11.400000000, 0.000000000
992, 113.160000000, 11.400000000, 0.000000000
993, 114.540000000, 11.400000000, 0.000000000
994, 115.920000000, 11.400000000, 0.000000000
995, 117.300000000, 11.400000000, 0.000000000
996, 118.680000000, 11.400000000, 0.000000000
997, 120.060000000, 11.400000000, 0.000000000
998, 121.440000000, 11.400000000, 0.000000000
999, 122.820000000, 11.400000000, 0.000000000
1000, 124.200000000, 11.400000000, 0.000000000
1001, 125.580000000, 11.400000000, 0.000000000
1002, 126.960000000, 11.400000000, 0.000000000
1003, 128.340000000, 11.400000000, 0.000000000
1004, 129.720000000, 11.400000000, 0.000000000
1005, 131.100000000, 11.400000000, 0.000000000
1006, 132.480000000, 11.400000000, 0.000000000
1007, 133.860000000, 11.400000000, 0.000000000
1008, 135.240000000, 11.400000000, 0.000000000
1009, 136.620000000, 11.400000000, 0.000000000
1010, 138.000000000, 11.400000000, 0.000000000
1011, 0.000000000, 12.666666667, 0.000000000
1012, 1.380000000, 12.666666667, 0.000000000
1013, 2.760000000, 12.666666667, 0.000000000
1014, 4.140000000, 12.666666667, 0.000000000
1015, 5.520000000, 12.666666667, 0.000000000
1016, 6.900000000, 12.666666667, 0.000000000
1017, 8.280000000, 12.666666667, 0.000000000
1018, 9.660000000, 12.666666667, 0.000000000
1019, 11.040000000, 12.666666667, 0.000000000
1020, 12.420000000, 12.666666667, 0.000000000
1021, 13.800000000, 12.666666667, 0.000000000
1022, 15.180000000, 12.666666667, 0.000000000
1023, 16.560000000, 12.666666667, 0.000000000
1024, 17.940000000, 12.666666667, 0.000000000
1025, 19.320000000, 12.666666667, 0.000000000
1026, 20.700000000, 12.666666667, 0.000000000
1027, 22.080000000, 12.666666667, 0.000000000
1028, 23.460000000, 12.666666667, 0.000000000
1029, 24.840000000, 12.666666667, 0.000000000
1030, 26.220000000, 12.666666667, 0.000000000
1031, 27.600000000, 12.666666667, 0.000000000
1032, 28.980000000, 12.666666667, 0.000000000
1033, 30.360000000, 12.666666667, 0.000000000
1034, 31.740000000, 12.666666667, 0.000000000
1035, 33.120000000, 12.666666667, 0.000000000
1036, 34.500000000, 12.666666667, 0.000000000
1037, 35.880000000, 12.666666667, 0.000000000
1038, 37.260000000, 12.666666667, 0.000000000
1039, 38.640000000, 12.666666667, 0.000000000
1040, 40.020000000, 12.666666667, 0.000000000
1041, 41.400000000, 12.666666667, 0.000000000
1042, 42.780000000, 12.666666667, 0.000000000
1043, 44.160000000, 12.666666667, 0.000000000
1044, 45.540000000, 12.666666667, 0.000000000
1045, 46.920000000, 12.666666667, 0.000000000
1046, 48.300000000, 12.666666667, 0.000000000
1047, 49.680000000, 12.666666667, 0.000000000
1048, 51.060000000, 12.666666667, 0.000000000
1049, 52.440000000, 12.666666667, 0.000000000
1050, 53.820000000, 12.666666667, 0.000000000
1051, 55.200000000, 12.666666667, 0.000000000
1052, 56.580000000, 12.666666667, 0.000000000
1053, 57.960000000, 12.666666667, 0.000000000
1054, 59.340000000, 12.666666667, 0.000000000
1055, 60.720000000, 12.666666667, 0.000000000
1056, 62.100000000, 12.666666667, 0.000000000
1057, 63.480000000, 12.666666667, 0.000000000
1058, 64.860000000, 12.666666667, 0.000000000
1059, 66.240000000, 12.666666667, 0.000000000
1060, 67.620000000, 12.666666667, 0.000000000
1061, 69.000000000, 12.666666667, 0.000000000
1062, 70.380000000, 12.666666667, 0.000000000
1063, 71.760000000, 12.666666667, 0.000000000
1064, 73.140000000, 12.666666667, 0.000000000
1065, 74.520000000, 12.666666667, 0.000000000
1066, 75.900000000, 12.666666667, 0.000000000
1067, 77.280000000, 12.666666667, 0.000000000
1068, 78.660000000, 12.666666667, 0.000000000
1069, 80.040000000, 12.666666667, 0.000000000
1070, 81.420000000, 12.666666667, 0.000000000
1071, 82.800000000, 12.666666667, 0.000000000
1072, 84.180000000, 12.666666667, 0.000000000
1073, 85.560000000, 12.666666667, 0.000000000
1074, 86.940000000, 12.666666667, 0.000000000
1075, 88.320000000, 12.666666667, 0.000000000
1076, 89.700000000, 12.666666667, 0.000000000
1077, 91.080000000, 12.666666667, 0.000000000
1078, 92.460000000, 12.666666667, 0.000000000
1079, 93.840000000, 12.666666667, 0.000000000
1080, 95.220000000, 12.666666667, 0.000000000
1081, 96.600000000, 12.666666667, 0.000000000
1082, 97.980000000, 12.666666667, 0.000000000
1083, 99.360000000, 12.666666667, 0.000000000
1084, 100.740000000, 12.666666667, 0.000000000
1085, 102.120000000, 12.666666667, 0.000000000
1086, 103.500000000, 12.666666667, 0.000000000
1087, 104.880000000, 12.666666667, 0.000000000
1088, 106.260000000, 12.666666667, 0.000000000
1089, 107.640000000, 12.666666667, 0.000000000
1090, 109.020000000, 12.666666667, 0.000000000
1091, 110.400000000, 12.666666667, 0.000000000
1092, 111.780000000, 12.666666667, 0.000000000
1093, 113.160000000, 12.666666667, 0.000000000
1094, 114.540000000, 12.666666667, 0.000000000
1095, 115.920000000, 12.666666667, 0.000000000
1096, 117.300000000, 12.666666667, 0.000000000
1097, 118.680000000, 12.666666667, 0.000000000
1098, 120.060000000, 12.666666667, 0.000000000
1099, 121.440000000, 12.666666667, 0.000000000
1100, 122.820000000, 12.666666667, 0.000000000
1101, 124.200000000, 12.666666667, 0.000000000
1102, 125.580000000, 12.666666667, 0.000000000
1103, 126.960000000, 12.666666667, 0.000000000
1104, 128.340000000, 12.666666667, 0.000000000
1105, 129.720000000, 12.666666667, 0.000000000
1106, 131.100000000, 12.666666667, 0.000000000
1107, 132.480000000, 12.666666667, 0.000000000
1108, 133.860000000, 12.666666667, 0.000000000
1109, 135.240000000, 12.666666667, 0.000000000
1110, 136.620000000, 12.666666667, 0.000000000
1111, 138.000000000, 12.666666667, 0.000000000
1112, 0.000000000, 13.933333333, 0.000000000
1113, 1.380000000, 13.933333333, 0.000000000
1114, 2.760000000, 13.933333333, 0.000000000
1115, 4.140000000, 13.933333333, 0.000000000
1116, 5.520000000, 13.933333333, 0.000000000
1117, 6.900000000, 13.933333333, 0.000000000
1118, 8.280000000, 13.933333333, 0.000000000
1119, 9.660000000, 13.933333333, 0.000000000
1120, 11.040000000, 13.933333333, 0.000000000
1121, 12.420000000, 13.933333333, 0.000000000
1122, 13.800000000, 13.933333333, 0.000000000
1123, 15.180000000, 13.933333333, 0.000000000
1124, 16.560000000, 13.933333333, 0.000000000
1125, 17.940000000, 13.933333333, 0.000000000
1126, 19.320000000, 13.933333333, 0.000000000
1127, 20.700000000, 13.933333333, 0.000000000
1128, 22.080000000, 13.933333333, 0.000000000
1129, 23.460000000, 13.933333333, 0.000000000
1130, 24.840000000, 13.933333333, 0.000000000
1131, 26.220000000, 13.933333333, 0.000000000
1132, 27.600000000, 13.933333333, 0.000000000
1133, 28.980000000, 13.933333333, 0.000000000
1134, 30.360000000, 13.933333333, 0.000000000
1135, 31.740000000, 13.933333333, 0.000000000
1136, 33.120000000, 13.933333333, 0.000000000
1137, 34.500000000, 13.933333333, 0.000000000
1138, 35.880000000, 13.933333333, 0.000000000
1139, 37.260000000, 13.933333333, 0.000000000
1140, 38.640000000, 13.933333333, 0.000000000
1141, 40.020000000, 13.933333333, 0.000000000
1142, 41.400000000, 13.933333333, 0.000000000
1143, 42.780000000, 13.933333333, 0.000000000
1144, 44.160000000, 13.933333333, 0.000000000
1145, 45.540000000, 13.933333333, 0.000000000
1146, 46.920000000, 13.933333333, 0.000000000
1147, 48.300000000, 13.933333333, 0.000000000
1148, 49.680000000, 13.933333333, 0.000000000
1149, 51.060000000, 13.933333333, 0.000000000
1150, 52.440000000, 13.933333333, 0.000000000
1151, 53.820000000, 13.933333333, 0.000000000
1152, 55.200000000, 13.933333333, 0.000000000
1153, 56.580000000, 13.933333333, 0.000000000
1154, 57.960000000, 13.933333333, 0.000000000
1155, 59.340000000, 13.933333333, 0.000000000
1156, 60.720000000, 13.933333333, 0.000000000
1157, 62.100000000, 13.933333333, 0.000000000
1158, 63.480000000, 13.933333333, 0.000000000
1159, 64.860000000, 13.933333333, 0.000000000
1160, 66.240000000, 13.933333333, 0.000000000
1161, 67.620000000, 13.933333333, 0.000000000
1162, 69.000000000, 13.933333333, 0.000000000
1163, 70.380000000, 13.933333333, 0.000000000
1164, 71.760000000, 13.933333333, 0.000000000
1165, 73.140000000, 13.933333333, 0.000000000
1166, 74.520000000, 13.933333333, 0.000000000
1167, 75.900000000, 13.933333333, 0.000000000
1168, 77.280000000, 13.933333333, 0.000000000
1169, 78.660000000, 13.933333333, 0.000000000
1170, 80.040000000, 13.933333333, 0.000000000
1171, 81.420000000, 13.933333333, 0.000000000
1172, 82.800000000, 13.933333333, 0.000000000
1173, 84.180000000, 13.933333333, 0.000000000
1174, 85.560000000, 13.933333333, 0.000000000
1175, 86.940000000, 13.933333333, 0.000000000
1176, 88.320000000, 13.933333333, 0.000000000
1177, 89.700000000, 13.933333333, 0.000000000
1178, 91.080000000, 13.933333333, 0.000000000
1179, 92.460000000, 13.933333333, 0.000000000
1180, 93.840000000, 13.933333333, 0.000000000
1181, 95.220000000, 13.933333333, 0.000000000
1182, 96.600000000, 13.933333333, 0.000000000
1183, 97.980000000, 13.933333333, 0.000000000
1184, 99.360000000, 13.933333333, 0.000000000
1185, 100.740000000, 13.933333333, 0.000000000
1186, 102.120000000, 13.933333333, 0.000000000
1187, 103.500000000, 13.933333333, 0.000000000
1188, 104.880000000, 13.933333333, 0.000000000
1189, 106.260000000, 13.933333333, 0.000000000
1190, 107.640000000, 13.933333333, 0.000000000
1191, 109.020000000, 13.933333333, 0.000000000
1192, 110.400000000, 13.933333333, 0.000000000
1193, 111.780000000, 13.933333333, 0.000000000
1194, 113.160000000, 13.933333333, 0.000000000
1195, 114.540000000, 13.933333333, 0.000000000
1196, 115.920000000, 13.933333333, 0.000000000
1197, 117.300000000, 13.933333333, 0.000000000
1198, 118.680000000, 13.933333333, 0.000000000
1199, 120.060000000, 13.933333333, 0.000000000
1200, 121.440000000, 13.933333333, 0.000000000
1201, 122.820000000, 13.933333333, 0.000000000
1202, 124.200000000, 13.933333333, 0.000000000
1203, 125.580000000, 13.933333333, 0.000000000
1204, 126.960000000, 13.933333333, 0.000000000
1205, 128.340000000, 13.933333333, 0.000000000
1206, 129.720000000, 13.933333333, 0.000000000
1207, 131.100000000, 13.933333333, 0.000000000
1208, 132.480000000, 13.933333333, 0.000000000
1209, 133.860000000, 13.933333333, 0.000000000
1210, 135.240000000, 13.933333333, 0.000000000
1211, 136.620000000, 13.933333333, 0.000000000
1212, 138.000000000, 13.933333333, 0.000000000
1213, 0.000000000, 15.200000000, 0.000000000
1214, 1.380000000, 15.200000000, 0.000000000
1215, 2.760000000, 15.200000000, 0.000000000
1216, 4.140000000, 15.200000000, 0.000000000
1217, 5.520000000, 15.200000000, 0.000000000
1218, 6.900000000, 15.200000000, 0.000000000
1219, 8.280000000, 15.200000000, 0.000000000
1220, 9.660000000, 15.200000000, 0.000000000
1221, 11.040000000, 15.200000000, 0.000000000
1222, 12.420000000, 15.200000000, 0.000000000
1223, 13.800000000, 15.200000000, 0.000000000
1224, 15.180000000, 15.200000000, 0.000000000
1225, 16.560000000, 15.200000000, 0.000000000
1226, 17.940000000, 15.200000000, 0.000000000
1227, 19.320000000, 15.200000000, 0.000000000
1228, 20.700000000, 15.200000000, 0.000000000
1229, 22.080000000, 15.200000000, 0.000000000
1230, 23.460000000, 15.200000000, 0.000000000
1231, 24.840000000, 15.200000000, 0.000000000
1232, 26.220000000, 15.200000000, 0.000000000
1233, 27.600000000, 15.200000000, 0.000000000
1234, 28.980000000, 15.200000000, 0.000000000
1235, 30.360000000, 15.200000000, 0.000000000
1236, 31.740000000, 15.200000000, 0.000000000
1237, 33.120000000, 15.200000000, 0.000000000
1238, 34.500000000, 15.200000000, 0.000000000
1239, 35.880000000, 15.200000000, 0.000000000
1240, 37.260000000, 15.200000000, 0.000000000
1241, 38.640000000, 15.200000000, 0.000000000
1242, 40.020000000, 15.200000000, 0.000000000
1243, 41.400000000, 15.200000000, 0.000000000
1244, 42.780000000, 15.200000000, 0.000000000
1245, 44.160000000, 15.200000000, 0.000000000
1246, 45.540000000, 15.200000000, 0.000000000
1247, 46.920000000, 15.200000000, 0.000000000
1248, 48.300000000, 15.200000000, 0.000000000
1249, 49.680000000, 15.200000000, 0.000000000
1250, 51.060000000, 15.200000000, 0.000000000
1251, 52.440000000, 15.200000000, 0.000000000
1252, 53.820000000, 15.200000000, 0.000000000
1253, 55.200000000, 15.200000000, 0.000000000
1254, 56.580000000, 15.200000000, 0.000000000
1255, 57.960000000, 15.200000000, 0.000000000
1256, 59.340000000, 15.200000000, 0.000000000
1257, 60.720000000, 15.200000000, 0.000000000
1258, 62.100000000, 15.200000000, 0.000000000
1259, 63.480000000, 15.200000000, 0.000000000
1260, 64.860000000, 15.200000000, 0.000000000
1261, 66.240000000, 15.200000000, 0.000000000
1262, 67.620000000, 15.200000000, 0.000000000
1263, 69.000000000, 15.200000000, 0.000000000
1264, 70.380000000, 15.200000000, 0.000000000
1265, 71.760000000, 15.200000000, 0.000000000
1266, 73.140000000, 15.200000000, 0.000000000
1267, 74.520000000, 15.200000000, 0.000000000
1268, 75.900000000, 15.200000000, 0.000000000
1269, 77.280000000, 15.200000000, 0.000000000
1270, 78.660000000, 15.200000000, 0.000000000
1271, 80.040000000, 15.200000000, 0.000000000
1272, 81.420000000, 15.200000000, 0.000000000
1273, 82.800000000, 15.200000000, 0.000000000
1274, 84.180000000, 15.200000000, 0.000000000
1275, 85.560000000, 15.200000000, 0.000000000
1276, 86.940000000, 15.200000000, 0.000000000
1277, 88.320000000, 15.200000000, 0.000000000
1278, 89.700000000, 15.200000000, 0.000000000
1279, 91.080000000, 15.200000000, 0.000000000
1280, 92.460000000, 15.200000000, 0.000000000
1281, 93.840000000, 15.200000000, 0.000000000
1282, 95.220000000, 15.200000000, 0.000000000
1283, 96.600000000, 15.200000000, 0.000000000
1284, 97.980000000, 15.200000000, 0.000000000
1285, 99.360000000, 15.200000000, 0.000000000
1286, 100.740000000, 15.200000000, 0.000000000
1287, 102.120000000, 15.200000000, 0.000000000
1288, 103.500000000, 15.200000000, 0.000000000
1289, 104.880000000, 15.200000000, 0.000000000
1290, 106.260000000, 15.200000000, 0.000000000
1291, 107.640000000, 15.200000000, 0.000000000
1292, 109.020000000, 15.200000000, 0.000000000
1293, 110.400000000, 15.200000000, 0.000000000
1294, 111.780000000, 15.200000000, 0.000000000
1295, 113.160000000, 15.200000000, 0.000000000
1296, 114.540000000, 15.200000000, 0.000000000
1297, 115.920000000, 15.200000000, 0.000000000
1298, 117.300000000, 15.200000000, 0.000000000
1299, 118.680000000, 15.200000000, 0.000000000
1300, 120.060000000, 15.200000000, 0.000000000
1301, 121.440000000, 15.200000000, 0.000000000
1302, 122.820000000, 15.200000000, 0.000000000
1303, 124.200000000, 15.200000000, 0.000000000
1304, 125.580000000, 15.200000000, 0.000000000
1305, 126.960000000, 15.200000000, 0.000000000
1306, 128.340000000, 15.200000000, 0.000000000
1307, 129.720000000, 15.200000000, 0.000000000
1308, 131.100000000, 15.200000000, 0.000000000
1309, 132.480000000, 15.200000000, 0.000000000
1310, 133.860000000, 15.200000000, 0.000000000
1311, 135.240000000, 15.200000000, 0.000000000
1312, 136.620000000, 15.200000000, 0.000000000
1313, 138.000000000, 15.200000000, 0.000000000
1314, 0.000000000, 16.466666667, 0.000000000
1315, 1.380000000, 16.466666667, 0.000000000
1316, 2.760000000, 16.466666667, 0.000000000
1317, 4.140000000, 16.466666667, 0.000000000
1318, 5.520000000, 16.466666667, 0.000000000
1319, 6.900000000, 16.466666667, 0.000000000
1320, 8.280000000, 16.466666667, 0.000000000
1321, 9.660000000, 16.466666667, 0.000000000
1322, 11.040000000, 16.466666667, 0.000000000
1323, 12.420000000, 16.466666667, 0.000000000
1324, 13.800000000, 16.466666667, 0.000000000
1325, 15.180000000, 16.466666667, 0.000000000
1326, 16.560000000, 16.466666667, 0.000000000
1327, 17.940000000, 16.466666667, 0.000000000
1328, 19.320000000, 16.466666667, 0.000000000
1329, 20.700000000, 16.466666667, 0.000000000
1330, 22.080000000, 16.466666667, 0.000000000
1331, 23.460000000, 16.466666667, 0.000000000
1332, 24.840000000, 16.466666667, 0.000000000
1333, 26.220000000, 16.466666667, 0.000000000
1334, 27.600000000, 16.466666667, 0.000000000
1335, 28.980000000, 16.466666667, 0.000000000
1336, 30.360000000, 16.466666667, 0.000000000
1337, 31.740000000, 16.466666667, 0.000000000
1338, 33.120000000, 16.466666667, 0.000000000
1339, 34.500000000, 16.466666667, 0.000000000
1340, 35.880000000, 16.466666667, 0.000000000
1341, 37.260000000, 16.466666667, 0.000000000
1342, 38.640000000, 16.466666667, 0.000000000
1343, 40.020000000, 16.466666667, 0.000000000
1344, 41.400000000, 16.466666667, 0.000000000
1345, 42.780000000, 16.466666667, 0.000000000
1346, 44.160000000, 16.466666667, 0.000000000
1347, 45.540000000, 16.466666667, 0.000000000
1348, 46.920000000, 16.466666667, 0.000000000
1349, 48.300000000, 16.466666667, 0.000000000
1350, 49.680000000, 16.466666667, 0.000000000
1351, 51.060000000, 16.466666667, 0.000000000
1352, 52.440000000, 16.466666667, 0.000000000
1353, 53.820000000, 16.466666667, 0.000000000
1354, 55.200000000, 16.466666667, 0.000000000
1355, 56.580000000, 16.466666667, 0.000000000
1356, 57.960000000, 16.466666667, 0.000000000
1357, 59.340000000, 16.466666667, 0.000000000
1358, 60.720000000, 16.466666667, 0.000000000
1359, 62.100000000, 16.466666667, 0.000000000
1360, 63.480000000, 16.466666667, 0.000000000
1361, 64.860000000, 16.466666667, 0.000000000
1362, 66.240000000, 16.466666667, 0.000000000
1363, 67.620000000, 16.466666667, 0.000000000
1364, 69.000000000, 16.466666667, 0.000000000
1365, 70.380000000, 16.466666667, 0.000000000
1366, 71.760000000, 16.466666667, 0.000000000
1367, 73.140000000, 16.466666667, 0.000000000
1368, 74.520000000, 16.466666667, 0.000000000
1369, 75.900000000, 16.466666667, 0.000000000
1370, 77.280000000, 16.466666667, 0.000000000
1371, 78.660000000, 16.466666667, 0.000000000
1372, 80.040000000, 16.466666667, 0.000000000
1373, 81.420000000, 16.466666667, 0.000000000
1374, 82.800000000, 16.466666667, 0.000000000
1375, 84.180000000, 16.466666667, 0.000000000
1376, 85.560000000, 16.466666667, 0.000000000
1377, 86.940000000, 16.466666667, 0.000000000
1378, 88.320000000, 16.466666667, 0.000000000
1379, 89.700000000, 16.466666667, 0.000000000
1380, 91.080000000, 16.466666667, 0.000000000
1381, 92.460000000, 16.466666667, 0.000000000
1382, 93.840000000, 16.466666667, 0.000000000
1383, 95.220000000, 16.466666667, 0.000000000
1384, 96.600000000, 16.466666667, 0.000000000
1385, 97.980000000, 16.466666667, 0.000000000
1386, 99.360000000, 16.466666667, 0.000000000
1387, 100.740000000, 16.466666667, 0.000000000
1388, 102.120000000, 16.466666667, 0.000000000
1389, 103.500000000, 16.466666667, 0.000000000
1390, 104.880000000, 16.466666667, 0.000000000
1391, 106.260000000, 16.466666667, 0.000000000
1392, 107.640000000, 16.466666667, 0.000000000
1393, 109.020000000, 16.466666667, 0.000000000
1394, 110.400000000, 16.466666667, 0.000000000
1395, 111.780000000, 16.466666667, 0.000000000
1396, 113.160000000, 16.466666667, 0.000000000
1397, 114.540000000, 16.466666667, 0.000000000
1398, 115.920000000, 16.466666667, 0.000000000
1399, 117.300000000, 16.466666667, 0.000000000
1400, 118.680000000, 16.466666667, 0.000000000
1401, 120.060000000, 16.466666667, 0.000000000
1402, 121.440000000, 16.466666667, 0.000000000
1403, 122.820000000, 16.466666667, 0.000000000
1404, 124.200000000, 16.466666667, 0.000000000
1405, 125.580000000, 16.466666667, 0.000000000
1406, 126.960000000, 16.466666667, 0.000000000
1407, 128.340000000, 16.466666667, 0.000000000
1408, 129.720000000, 16.466666667, 0.000000000
1409, 131.100000000, 16.466666667, 0.000000000
1410, 132.480000000, 16.466666667, 0.000000000
1411, 133.860000000, 16.466666667, 0.000000000
1412, 135.240000000, 16.466666667, 0.000000000
1413, 136.620000000, 16.466666667, 0.000000000
1414, 138.000000000, 16.466666667, 0.000000000
1415, 0.000000000, 17.733333333, 0.000000000
1416, 1.380000000, 17.733333333, 0.000000000
1417, 2.760000000, 17.733333333, 0.000000000
1418, 4.140000000, 17.733333333, 0.000000000
1419, 5.520000000, 17.733333333, 0.000000000
1420, 6.900000000, 17.733333333, 0.000000000
1421, 8.280000000, 17.733333333, 0.000000000
1422, 9.660000000, 17.733333333, 0.000000000
1423, 11.040000000, 17.733333333, 0.000000000
1424, 12.420000000, 17.733333333, 0.000000000
1425, 13.800000000, 17.733333333, 0.000000000
1426, 15.180000000, 17.733333333, 0.000000000
1427, 16.560000000, 17.733333333, 0.000000000
1428, 17.940000000, 17.733333333, 0.000000000
1429, 19.320000000, 17.733333333, 0.000000000
1430, 20.700000000, 17.733333333, 0.000000000
1431, 22.080000000, 17.733333333, 0.000000000
1432, 23.460000000, 17.733333333, 0.000000000
1433, 24.840000000, 17.733333333, 0.000000000
1434, 26.220000000, 17.733333333, 0.000000000
1435, 27.600000000, 17.733333333, 0.000000000
1436, 28.980000000, 17.733333333, 0.000000000
1437, 30.360000000, 17.733333333, 0.000000000
1438, 31.740000000, 17.733333333, 0.000000000
1439, 33.120000000, 17.733333333, 0.000000000
1440, 34.500000000, 17.733333333, 0.000000000
1441, 35.880000000, 17.733333333, 0.000000000
1442, 37.260000000, 17.733333333, 0.000000000
1443, 38.640000000, 17.733333333, 0.000000000
1444, 40.020000000, 17.733333333, 0.000000000
1445, 41.400000000, 17.733333333, 0.000000000
1446, 42.780000000, 17.733333333, 0.000000000
1447, 44.160000000, 17.733333333, 0.000000000
1448, 45.540000000, 17.733333333, 0.000000000
1449, 46.920000000, 17.733333333, 0.000000000
1450, 48.300000000, 17.733333333, 0.000000000
1451, 49.680000000, 17.733333333, 0.000000000
1452, 51.060000000, 17.733333333, 0.000000000
1453, 52.440000000, 17.733333333, 0.000000000
1454, 53.820000000, 17.733333333, 0.000000000
1455, 55.200000000, 17.733333333, 0.000000000
1456, 56.580000000, 17.733333333, 0.000000000
1457, 57.960000000, 17.733333333, 0.000000000
1458, 59.340000000, 17.733333333, 0.000000000
1459, 60.720000000, 17.733333333, 0.000000000
1460, 62.100000000, 17.733333333, 0.000000000
1461, 63.480000000, 17.733333333, 0.000000000
1462, 64.860000000, 17.733333333, 0.000000000
1463, 66.240000000, 17.733333333, 0.000000000
1464, 67.620000000, 17.733333333, 0.000000000
1465, 69.000000000, 17.733333333, 0.000000000
1466, 70.380000000, 17.733333333, 0.000000000
1467, 71.760000000, 17.733333333, 0.000000000
1468, 73.140000000, 17.733333333, 0.000000000
1469, 74.520000000, 17.733333333, 0.000000000
1470, 75.900000000, 17.733333333, 0.000000000
1471, 77.280000000, 17.733333333, 0.000000000
1472, 78.660000000, 17.733333333, 0.000000000
1473, 80.040000000, 17.733333333, 0.000000000
1474, 81.420000000, 17.733333333, 0.000000000
1475, 82.800000000, 17.733333333, 0.000000000
1476, 84.180000000, 17.733333333, 0.000000000
1477, 85.560000000, 17.733333333, 0.000000000
1478, 86.940000000, 17.733333333, 0.000000000
1479, 88.320000000, 17.733333333, 0.000000000
1480, 89.700000000, 17.733333333, 0.000000000
1481, 91.080000000, 17.733333333, 0.000000000
1482, 92.460000000, 17.733333333, 0.000000000
1483, 93.840000000, 17.733333333, 0.000000000
1484, 95.220000000, 17.733333333, 0.000000000
1485, 96.600000000, 17.733333333, 0.000000000
1486, 97.980000000, 17.733333333, 0.000000000
1487, 99.360000000, 17.733333333, 0.000000000
1488, 100.740000000, 17.733333333, 0.000000000
1489, 102.120000000, 17.733333333, 0.000000000
1490, 103.500000000, 17.733333333, 0.000000000
1491, 104.880000000, 17.733333333, 0.000000000
1492, 106.260000000, 17.733333333, 0.000000000
1493, 107.640000000, 17.733333333, 0.000000000
1494, 109.020000000, 17.733333333, 0.000000000
1495, 110.400000000, 17.733333333, 0.000000000
1496, 111.780000000, 17.733333333, 0.000000000
1497, 113.160000000, 17.733333333, 0.000000000
1498, 114.540000000, 17.733333333, 0.000000000
1499, 115.920000000, 17.733333333, 0.000000000
1500, 117.300000000, 17.733333333, 0.000000000
1501, 118.680000000, 17.733333333, 0.000000000
1502, 120.060000000, 17.733333333, 0.000000000
1503, 121.440000000, 17.733333333, 0.000000000
1504, 122.820000000, 17.733333333, 0.000000000
1505, 124.200000000, 17.733333333, 0.000000000
1506, 125.580000000, 17.733333333, 0.000000000
1507, 126.960000000, 17.733333333, 0.000000000
1508, 128.340000000, 17.733333333, 0.000000000
1509, 129.720000000, 17.733333333, 0.000000000
1510, 131.100000000, 17.733333333, 0.000000000
1511, 132.480000000, 17.733333333, 0.000000000
1512, 133.860000000, 17.733333333, 0.000000000
1513, 135.240000000, 17.733333333, 0.000000000
1514, 136.620000000, 17.733333333, 0.000000000
1515, 138.000000000, 17.733333333, 0.000000000
1516, 0.000000000, 19.000000000, 0.000000000
1517, 1.380000000, 19.000000000, 0.000000000
1518, 2.760000000, 19.000000000, 0.000000000
1519, 4.140000000, 19.000000000, 0.000000000
1520, 5.520000000, 19.000000000, 0.000000000
1521, 6.900000000, 19.000000000, 0.000000000
1522, 8.280000000, 19.000000000, 0.000000000
1523, 9.660000000, 19.000000000, 0.000000000
1524, 11.040000000, 19.000000000, 0.000000000
1525, 12.420000000, 19.000000000, 0.000000000
1526, 13.800000000, 19.000000000, 0.000000000
1527, 15.180000000, 19.000000000, 0.000000000
1528, 16.560000000, 19.000000000, 0.000000000
1529, 17.940000000, 19.000000000, 0.000000000
1530, 19.320000000, 19.000000000, 0.000000000
1531, 20.700000000, 19.000000000, 0.000000000
1532, 22.080000000, 19.000000000, 0.000000000
1533, 23.460000000, 19.000000000, 0.000000000
1534, 24.840000000, 19.000000000, 0.000000000
1535, 26.220000000, 19.000000000, 0.000000000
1536, 27.600000000, 19.000000000, 0.000000000
1537, 28.980000000, 19.000000000, 0.000000000
1538, 30.360000000, 19.000000000, 0.000000000
1539, 31.740000000, 19.000000000, 0.000000000
1540, 33.120000000, 19.000000000, 0.000000000
1541, 34.500000000, 19.000000000, 0.000000000
1542, 35.880000000, 19.000000000, 0.000000000
1543, 37.260000000, 19.000000000, 0.000000000
1544, 38.640000000, 19.000000000, 0.000000000
1545, 40.020000000, 19.000000000, 0.000000000
1546, 41.400000000, 19.000000000, 0.000000000
1547, 42.780000000, 19.000000000, 0.000000000
1548, 44.160000000, 19.000000000, 0.000000000
1549, 45.540000000, 19.000000000, 0.000000000
1550, 46.920000000, 19.000000000, 0.000000000
1551, 48.300000000, 19.000000000, 0.000000000
1552, 49.680000000, 19.000000000, 0.000000000
1553, 51.060000000, 19.000000000, 0.000000000
1554, 52.440000000, 19.000000000, 0.000000000
1555, 53.820000000, 19.000000000, 0.000000000
1556, 55.200000000, 19.000000000, 0.000000000
1557, 56.580000000, 19.000000000, 0.000000000
1558, 57.960000000, 19.000000000, 0.000000000
1559, 59.340000000, 19.000000000, 0.000000000
1560, 60.720000000, 19.000000000, 0.000000000
1561, 62.100000000, 19.000000000, 0.000000000
1562, 63.480000000, 19.000000000, 0.000000000
1563, 64.860000000, 19.000000000, 0.000000000
1564, 66.240000000, 19.000000000, 0.000000000
1565, 67.620000000, 19.000000000, 0.000000000
1566, 69.000000000, 19.000000000, 0.000000000
1567, 70.380000000, 19.000000000, 0.000000000
1568, 71.760000000, 19.000000000, 0.000000000
1569, 73.140000000, 19.000000000, 0.000000000
1570, 74.520000000, 19.000000000, 0.000000000
1571, 75.900000000, 19.000000000, 0.000000000
1572, 77.280000000, 19.000000000, 0.000000000
1573, 78.660000000, 19.000000000, 0.000000000
1574, 80.040000000, 19.000000000, 0.000000000
1575, 81.420000000, 19.000000000, 0.000000000
1576, 82.800000000, 19.000000000, 0.000000000
1577, 84.180000000, 19.000000000, 0.000000000
1578, 85.560000000, 19.000000000, 0.000000000
1579, 86.940000000, 19.000000000, 0.000000000
1580, 88.320000000, 19.000000000, 0.000000000
1581, 89.700000000, 19.000000000, 0.000000000
1582, 91.080000000, 19.000000000, 0.000000000
1583, 92.460000000, 19.000000000, 0.000000000
1584, 93.840000000, 19.000000000, 0.000000000
1585, 95.220000000, 19.000000000, 0.000000000
1586, 96.600000000, 19.000000000, 0.000000000
1587, 97.980000000, 19.000000000, 0.000000000
1588, 99.360000000, 19.000000000, 0.000000000
1589, 100.740000000, 19.000000000, 0.000000000
1590, 102.120000000, 19.000000000, 0.000000000
1591, 103.500000000, 19.000000000, 0.000000000
1592, 104.880000000, 19.000000000, 0.000000000
1593, 106.260000000, 19.000000000, 0.000000000
1594, 107.640000000, 19.000000000, 0.000000000
1595, 109.020000000, 19.000000000, 0.000000000
1596, 110.400000000, 19.000000000, 0.000000000
1597, 111.780000000, 19.000000000, 0.000000000
1598, 113.160000000, 19.000000000, 0.000000000
1599, 114.540000000, 19.000000000, 0.000000000
1600, 115.920000000, 19.000000000, 0.000000000
1601, 117.300000000, 19.000000000, 0.000000000
1602, 118.680000000, 19.000000000, 0.000000000
1603, 120.060000000, 19.000000000, 0.000000000
1604, 121.440000000, 19.000000000, 0.000000000
1605, 122.820000000, 19.000000000, 0.000000000
1606, 124.200000000, 19.000000000, 0.000000000
1607, 125.580000000, 19.000000000, 0.000000000
1608, 126.960000000, 19.000000000, 0.000000000
1609, 128.340000000, 19.000000000, 0.000000000
1610, 129.720000000, 19.000000000, 0.000000000
1611, 131.100000000, 19.000000000, 0.000000000
1612, 132.480000000, 19.000000000, 0.000000000
1613, 133.860000000, 19.000000000, 0.000000000
1614, 135.240000000, 19.000000000, 0.000000000
1615, 136.620000000, 19.000000000, 0.000000000
1616, 138.000000000, 19.000000000, 0.000000000
1617, 0.000000000, 20.266666667, 0.000000000
1618, 1.380000000, 20.266666667, 0.000000000
1619, 2.760000000, 20.266666667, 0.000000000
1620, 4.140000000, 20.266666667, 0.000000000
1621, 5.520000000, 20.266666667, 0.000000000
1622, 6.900000000, 20.266666667, 0.000000000
1623, 8.280000000, 20.266666667, 0.000000000
1624, 9.660000000, 20.266666667, 0.000000000
1625, 11.040000000, 20.266666667, 0.000000000
1626, 12.420000000, 20.266666667, 0.000000000
1627, 13.800000000, 20.266666667, 0.000000000
1628, 15.180000000, 20.266666667, 0.000000000
1629, 16.560000000, 20.266666667, 0.000000000
1630, 17.940000000, 20.266666667, 0.000000000
1631, 19.320000000, 20.266666667, 0.000000000
1632, 20.700000000, 20.266666667, 0.000000000
1633, 22.080000000, 20.266666667, 0.000000000
1634, 23.460000000, 20.266666667, 0.000000000
1635, 24.840000000, 20.266666667, 0.000000000
1636, 26.220000000, 20.266666667, 0.000000000
1637, 27.600000000, 20.266666667, 0.000000000
1638, 28.980000000, 20.266666667, 0.000000000
1639, 30.360000000, 20.266666667, 0.000000000
1640, 31.740000000, 20.266666667, 0.000000000
1641, 33.120000000, 20.266666667, 0.000000000
1642, 34.500000000, 20.266666667, 0.000000000
1643, 35.880000000, 20.266666667, 0.000000000
1644, 37.260000000, 20.266666667, 0.000000000
1645, 38.640000000, 20.266666667, 0.000000000
1646, 40.020000000, 20.266666667, 0.000000000
1647, 41.400000000, 20.266666667, 0.000000000
1648, 42.780000000, 20.266666667, 0.000000000
1649, 44.160000000, 20.266666667, 0.000000000
1650, 45.540000000, 20.266666667, 0.000000000
1651, 46.920000000, 20.266666667, 0.000000000
1652, 48.300000000, 20.266666667, 0.000000000
1653, 49.680000000, 20.266666667, 0.000000000
1654, 51.060000000, 20.266666667, 0.000000000
1655, 52.440000000, 20.266666667, 0.000000000
1656, 53.820000000, 20.266666667, 0.000000000
1657, 55.200000000, 20.266666667, 0.000000000
1658, 56.580000000, 20.266666667, 0.000000000
1659, 57.960000000, 20.266666667, 0.000000000
1660, 59.340000000, 20.266666667, 0.000000000
1661, 60.720000000, 20.266666667, 0.000000000
1662, 62.100000000, 20.266666667, 0.000000000
1663, 63.480000000, 20.266666667, 0.000000000
1664, 64.860000000, 20.266666667, 0.000000000
1665, 66.240000000, 20.266666667, 0.000000000
1666, 67.620000000, 20.266666667, 0.000000000
1667, 69.000000000, 20.266666667, 0.000000000
1668, 70.380000000, 20.266666667, 0.000000000
1669, 71.760000000, 20.266666667, 0.000000000
1670, 73.140000000, 20.266666667, 0.000000000
1671, 74.520000000, 20.266666667, 0.000000000
1672, 75.900000000, 20.266666667, 0.000000000
1673, 77.280000000, 20.266666667, 0.000000000
1674, 78.660000000, 20.266666667, 0.000000000
1675, 80.040000000, 20.266666667, 0.000000000
1676, 81.420000000, 20.266666667, 0.000000000
1677, 82.800000000, 20.266666667, 0.000000000
1678, 84.180000000, 20.266666667, 0.000000000
1679, 85.560000000, 20.266666667, 0.000000000
1680, 86.940000000, 20.266666667, 0.000000000
1681, 88.320000000, 20.266666667, 0.000000000
1682, 89.700000000, 20.266666667, 0.000000000
1683, 91.080000000, 20.266666667, 0.000000000
1684, 92.460000000, 20.266666667, 0.000000000
1685, 93.840000000, 20.266666667, 0.000000000
1686, 95.220000000, 20.266666667, 0.000000000
1687, 96.600000000, 20.266666667, 0.000000000
1688, 97.980000000, 20.266666667, 0.000000000
1689, 99.360000000, 20.266666667, 0.000000000
1690, 100.740000000, 20.266666667, 0.000000000
1691, 102.120000000, 20.266666667, 0.000000000
1692, 103.500000000, 20.266666667, 0.000000000
1693, 104.880000000, 20.266666667, 0.000000000
1694, 106.260000000, 20.266666667, 0.000000000
1695, 107.640000000, 20.266666667, 0.000000000
1696, 109.020000000, 20.266666667, 0.000000000
1697, 110.400000000, 20.266666667, 0.000000000
1698, 111.780000000, 20.266666667, 0.000000000
1699, 113.160000000, 20.266666667, 0.000000000
1700, 114.540000000, 20.266666667, 0.000000000
1701, 115.920000000, 20.266666667, 0.000000000
1702, 117.300000000, 20.266666667, 0.000000000
1703, 118.680000000, 20.266666667, 0.000000000
1704, 120.060000000, 20.266666667, 0.000000000
1705, 121.440000000, 20.266666667, 0.000000000
1706, 122.820000000, 20.266666667, 0.000000000
1707, 124.200000000, 20.266666667, 0.000000000
1708, 125.580000000, 20.266666667, 0.000000000
1709, 126.960000000, 20.266666667, 0.000000000
1710, 128.340000000, 20.266666667, 0.000000000
1711, 129.720000000, 20.266666667, 0.000000000
1712, 131.100000000, 20.266666667, 0.000000000
1713, 132.480000000, 20.266666667, 0.000000000
1714, 133.860000000, 20.266666667, 0.000000000
1715, 135.240000000, 20.266666667, 0.000000000
1716, 136.620000000, 20.266666667, 0.000000000
1717, 138.000000000, 20.266666667, 0.000000000
1718, 0.000000000, 21.533333333, 0.000000000
1719, 1.380000000, 21.533333333, 0.000000000
1720, 2.760000000, 21.533333333, 0.000000000
1721, 4.140000000, 21.533333333, 0.000000000
1722, 5.520000000, 21.533333333, 0.000000000
1723, 6.900000000, 21.533333333, 0.000000000
1724, 8.280000000, 21.533333333, 0.000000000
1725, 9.660000000, 21.533333333, 0.000000000
1726, 11.040000000, 21.533333333, 0.000000000
1727, 12.420000000, 21.533333333, 0.000000000
1728, 13.800000000, 21.533333333, 0.000000000
1729, 15.180000000, 21.533333333, 0.000000000
1730, 16.560000000, 21.533333333, 0.000000000
1731, 17.940000000, 21.533333333, 0.000000000
1732, 19.320000000, 21.533333333, 0.000000000
1733, 20.700000000, 21.533333333, 0.000000000
1734, 22.080000000, 21.533333333, 0.000000000
1735, 23.460000000, 21.533333333, 0.000000000
1736, 24.840000000, 21.533333333, 0.000000000
1737, 26.220000000, 21.533333333, 0.000000000
1738, 27.600000000, 21.533333333, 0.000000000
1739, 28.980000000, 21.533333333, 0.000000000
1740, 30.360000000, 21.533333333, 0.000000000
1741, 31.740000000, 21.533333333, 0.000000000
1742, 33.120000000, 21.533333333, 0.000000000
1743, 34.500000000, 21.533333333, 0.000000000
1744, 35.880000000, 21.533333333, 0.000000000
1745, 37.260000000, 21.533333333, 0.000000000
1746, 38.640000000, 21.533333333, 0.000000000
1747, 40.020000000, 21.533333333, 0.000000000
1748, 41.400000000, 21.533333333, 0.000000000
1749, 42.780000000, 21.533333333, 0.000000000
1750, 44.160000000, 21.533333333, 0.000000000
1751, 45.540000000, 21.533333333, 0.000000000
1752, 46.920000000, 21.533333333, 0.000000000
1753, 48.300000000, 21.533333333, 0.000000000
1754, 49.680000000, 21.533333333, 0.000000000
1755, 51.060000000, 21.533333333, 0.000000000
1756, 52.440000000, 21.533333333, 0.000000000
1757, 53.820000000, 21.533333333, 0.000000000
1758, 55.200000000, 21.533333333, 0.000000000
1759, 56.580000000, 21.533333333, 0.000000000
1760, 57.960000000, 21.533333333, 0.000000000
1761, 59.340000000, 21.533333333, 0.000000000
1762, 60.720000000, 21.533333333, 0.000000000
1763, 62.100000000, 21.533333333, 0.000000000
1764, 63.480000000, 21.533333333, 0.000000000
1765, 64.860000000, 21.533333333, 0.000000000
1766, 66.240000000, 21.533333333, 0.000000000
1767, 67.620000000, 21.533333333, 0.000000000
1768, 69.000000000, 21.533333333, 0.000000000
1769, 70.380000000, 21.533333333, 0.000000000
1770, 71.760000000, 21.533333333, 0.000000000
1771, 73.140000000, 21.533333333, 0.000000000
1772, 74.520000000, 21.533333333, 0.000000000
1773, 75.900000000, 21.533333333, 0.000000000
1774, 77.280000000, 21.533333333, 0.000000000
1775, 78.660000000, 21.533333333, 0.000000000
1776, 80.040000000, 21.533333333, 0.000000000
1777, 81.420000000, 21.533333333, 0.000000000
1778, 82.800000000, 21.533333333, 0.000000000
1779, 84.180000000, 21.533333333, 0.000000000
1780, 85.560000000, 21.533333333, 0.000000000
1781, 86.940000000, 21.533333333, 0.000000000
1782, 88.320000000, 21.533333333, 0.000000000
1783, 89.700000000, 21.533333333, 0.000000000
1784, 91.080000000, 21.533333333, 0.000000000
1785, 92.460000000, 21.533333333, 0.000000000
1786, 93.840000000, 21.533333333, 0.000000000
1787, 95.220000000, 21.533333333, 0.000000000
1788, 96.600000000, 21.533333333, 0.000000000
1789, 97.980000000, 21.533333333, 0.000000000
1790, 99.360000000, 21.533333333, 0.000000000
1791, 100.740000000, 21.533333333, 0.000000000
1792, 102.120000000, 21.533333333, 0.000000000
1793, 103.500000000, 21.533333333, 0.000000000
1794, 104.880000000, 21.533333333, 0.000000000
1795, 106.260000000, 21.533333333, 0.000000000
1796, 107.640000000, 21.533333333, 0.000000000
1797, 109.020000000, 21.533333333, 0.000000000
1798, 110.400000000, 21.533333333, 0.000000000
1799, 111.780000000, 21.533333333, 0.000000000
1800, 113.160000000, 21.533333333, 0.000000000
1801, 114.540000000, 21.533333333, 0.000000000
1802, 115.920000000, 21.533333333, 0.000000000
1803, 117.300000000, 21.533333333, 0.000000000
1804, 118.680000000, 21.533333333, 0.000000000
1805, 120.060000000, 21.533333333, 0.000000000
1806, 121.440000000, 21.533333333, 0.000000000
1807, 122.820000000, 21.533333333, 0.000000000
1808, 124.200000000, 21.533333333, 0.000000000
1809, 125.580000000, 21.533333333, 0.000000000
1810, 126.960000000, 21.533333333, 0.000000000
1811, 128.340000000, 21.533333333, 0.000000000
1812, 129.720000000, 21.533333333, 0.000000000
1813, 131.100000000, 21.533333333, 0.000000000
1814, 132.480000000, 21.533333333, 0.000000000
1815, 133.860000000, 21.533333333, 0.000000000
1816, 135.240000000, 21.533333333, 0.000000000
1817, 136.620000000, 21.533333333, 0.000000000
1818, 138.000000000, 21.533333333, 0.000000000
1819, 0.000000000, 22.800000000, 0.000000000
1820, 1.380000000, 22.800000000, 0.000000000
1821, 2.760000000, 22.800000000, 0.000000000
1822, 4.140000000, 22.800000000, 0.000000000
1823, 5.520000000, 22.800000000, 0.000000000
1824, 6.900000000, 22.800000000, 0.000000000
1825, 8.280000000, 22.800000000, 0.000000000
1826, 9.660000000, 22.800000000, 0.000000000
1827, 11.040000000, 22.800000000, 0.000000000
1828, 12.420000000, 22.800000000, 0.000000000
1829, 13.800000000, 22.800000000, 0.000000000
1830, 15.180000000, 22.800000000, 0.000000000
1831, 16.560000000, 22.800000000, 0.000000000
1832, 17.940000000, 22.800000000, 0.000000000
1833, 19.320000000, 22.800000000, 0.000000000
1834, 20.700000000, 22.800000000, 0.000000000
1835, 22.080000000, 22.800000000, 0.000000000
1836, 23.460000000, 22.800000000, 0.000000000
1837, 24.840000000, 22.800000000, 0.000000000
1838, 26.220000000, 22.800000000, 0.000000000
1839, 27.600000000, 22.800000000, 0.000000000
1840, 28.980000000, 22.800000000, 0.000000000
1841, 30.360000000, 22.800000000, 0.000000000
1842, 31.740000000, 22.800000000, 0.000000000
1843, 33.120000000, 22.800000000, 0.000000000
1844, 34.500000000, 22.800000000, 0.000000000
1845, 35.880000000, 22.800000000, 0.000000000
1846, 37.260000000, 22.800000000, 0.000000000
1847, 38.640000000, 22.800000000, 0.000000000
1848, 40.020000000, 22.800000000, 0.000000000
1849, 41.400000000, 22.800000000, 0.000000000
1850, 42.780000000, 22.800000000, 0.000000000
1851, 44.160000000, 22.800000000, 0.000000000
1852, 45.540000000, 22.800000000, 0.000000000
1853, 46.920000000, 22.800000000, 0.000000000
1854, 48.300000000, 22.800000000, 0.000000000
1855, 49.680000000, 22.800000000, 0.000000000
1856, 51.060000000, 22.800000000, 0.000000000
1857, 52.440000000, 22.800000000, 0.000000000
1858, 53.820000000, 22.800000000, 0.000000000
1859, 55.200000000, 22.800000000, 0.000000000
1860, 56.580000000, 22.800000000, 0.000000000
1861, 57.960000000, 22.800000000, 0.000000000
1862, 59.340000000, 22.800000000, 0.000000000
1863, 60.720000000, 22.800000000, 0.000000000
1864, 62.100000000, 22.800000000, 0.000000000
1865, 63.480000000, 22.800000000, 0.000000000
1866, 64.860000000, 22.800000000, 0.000000000
1867, 66.240000000, 22.800000000, 0.000000000
1868, 67.620000000, 22.800000000, 0.000000000
1869, 69.000000000, 22.800000000, 0.000000000
1870, 70.380000000, 22.800000000, 0.000000000
1871, 71.760000000, 22.800000000, 0.000000000
1872, 73.140000000, 22.800000000, 0.000000000
1873, 74.520000000, 22.800000000, 0.000000000
1874, 75.900000000, 22.800000000, 0.000000000
1875, 77.280000000, 22.800000000, 0.000000000
1876, 78.660000000, 22.800000000, 0.000000000
1877, 80.040000000, 22.800000000, 0.000000000
1878, 81.420000000, 22.800000000, 0.000000000
1879, 82.800000000, 22.800000000, 0.000000000
1880, 84.180000000, 22.800000000, 0.000000000
1881, 85.560000000, 22.800000000, 0.000000000
1882, 86.940000000, 22.800000000, 0.000000000
1883, 88.320000000, 22.800000000, 0.000000000
1884, 89.700000000, 22.800000000, 0.000000000
1885, 91.080000000, 22.800000000, 0.000000000
1886, 92.460000000, 22.800000000, 0.000000000
1887, 93.840000000, 22.800000000, 0.000000000
1888, 95.220000000, 22.800000000, 0.000000000
1889, 96.600000000, 22.800000000, 0.000000000
1890, 97.980000000, 22.800000000, 0.000000000
1891, 99.360000000, 22.800000000, 0.000000000
1892, 100.740000000, 22.800000000, 0.000000000
1893, 102.120000000, 22.800000000, 0.000000000
1894, 103.500000000, 22.800000000, 0.000000000
1895, 104.880000000, 22.800000000, 0.000000000
1896, 106.260000000, 22.800000000, 0.000000000
1897, 107.640000000, 22.800000000, 0.000000000
1898, 109.020000000, 22.800000000, 0.000000000
1899, 110.400000000, 22.800000000, 0.000000000
1900, 111.780000000, 22.800000000, 0.000000000
1901, 113.160000000, 22.800000000, 0.000000000
1902, 114.540000000, 22.800000000, 0.000000000
1903, 115.920000000, 22.800000000, 0.000000000
1904, 117.300000000, 22.800000000, 0.000000000
1905, 118.680000000, 22.800000000, 0.000000000
1906, 120.060000000, 22.800000000, 0.000000000
1907, 121.440000000, 22.800000000, 0.000000000
1908, 122.820000000, 22.800000000, 0.000000000
1909, 124.200000000, 22.800000000, 0.000000000
1910, 125.580000000, 22.800000000, 0.000000000
1911, 126.960000000, 22.800000000, 0.000000000
1912, 128.340000000, 22.800000000, 0.000000000
1913, 129.720000000, 22.800000000, 0.000000000
1914, 131.100000000, 22.800000000, 0.000000000
1915, 132.480000000, 22.800000000, 0.000000000
1916, 133.860000000, 22.800000000, 0.000000000
1917, 135.240000000, 22.800000000, 0.000000000
1918, 136.620000000, 22.800000000, 0.000000000
1919, 138.000000000, 22.800000000, 0.000000000
1920, 0.000000000, 24.066666667, 0.000000000
1921, 1.380000000, 24.066666667, 0.000000000
1922, 2.760000000, 24.066666667, 0.000000000
1923, 4.140000000, 24.066666667, 0.000000000
1924, 5.520000000, 24.066666667, 0.000000000
1925, 6.900000000, 24.066666667, 0.000000000
1926, 8.280000000, 24.066666667, 0.000000000
1927, 9.660000000, 24.066666667, 0.000000000
1928, 11.040000000, 24.066666667, 0.000000000
1929, 12.420000000, 24.066666667, 0.000000000
1930, 13.800000000, 24.066666667, 0.000000000
1931, 15.180000000, 24.066666667, 0.000000000
1932, 16.560000000, 24.066666667, 0.000000000
1933, 17.940000000, 24.066666667, 0.000000000
1934, 19.320000000, 24.066666667, 0.000000000
1935, 20.700000000, 24.066666667, 0.000000000
1936, 22.080000000, 24.066666667, 0.000000000
1937, 23.460000000, 24.066666667, 0.000000000
1938, 24.840000000, 24.066666667, 0.000000000
1939, 26.220000000, 24.066666667, 0.000000000
1940, 27.600000000, 24.066666667, 0.000000000
1941, 28.980000000, 24.066666667, 0.000000000
1942, 30.360000000, 24.066666667, 0.000000000
1943, 31.740000000, 24.066666667, 0.000000000
1944, 33.120000000, 24.066666667, 0.000000000
1945, 34.500000000, 24.066666667, 0.000000000
1946, 35.880000000, 24.066666667, 0.000000000
1947, 37.260000000, 24.066666667, 0.000000000
1948, 38.640000000, 24.066666667, 0.000000000
1949, 40.020000000, 24.066666667, 0.000000000
1950, 41.400000000, 24.066666667, 0.000000000
1951, 42.780000000, 24.066666667, 0.000000000
1952, 44.160000000, 24.066666667, 0.000000000
1953, 45.540000000, 24.066666667, 0.000000000
1954, 46.920000000, 24.066666667, 0.000000000
1955, 48.300000000, 24.066666667, 0.000000000
1956, 49.680000000, 24.066666667, 0.000000000
1957, 51.060000000, 24.066666667, 0.000000000
1958, 52.440000000, 24.066666667, 0.000000000
1959, 53.820000000, 24.066666667, 0.000000000
1960, 55.200000000, 24.066666667, 0.000000000
1961, 56.580000000, 24.066666667, 0.000000000
1962, 57.960000000, 24.066666667, 0.000000000
1963, 59.340000000, 24.066666667, 0.000000000
1964, 60.720000000, 24.066666667, 0.000000000
1965, 62.100000000, 24.066666667, 0.000000000
1966, 63.480000000, 24.066666667, 0.000000000
1967, 64.860000000, 24.066666667, 0.000000000
1968, 66.240000000, 24.066666667, 0.000000000
1969, 67.620000000, 24.066666667, 0.000000000
1970, 69.000000000, 24.066666667, 0.000000000
1971, 70.380000000, 24.066666667, 0.000000000
1972, 71.760000000, 24.066666667, 0.000000000
1973, 73.140000000, 24.066666667, 0.000000000
1974, 74.520000000, 24.066666667, 0.000000000
1975, 75.900000000, 24.066666667, 0.000000000
1976, 77.280000000, 24.066666667, 0.000000000
1977, 78.660000000, 24.066666667, 0.000000000
1978, 80.040000000, 24.066666667, 0.000000000
1979, 81.420000000, 24.066666667, 0.000000000
1980, 82.800000000, 24.066666667, 0.000000000
1981, 84.180000000, 24.066666667, 0.000000000
1982, 85.560000000, 24.066666667, 0.000000000
1983, 86.940000000, 24.066666667, 0.000000000
1984, 88.320000000, 24.066666667, 0.000000000
1985, 89.700000000, 24.066666667, 0.000000000
1986, 91.080000000, 24.066666667, 0.000000000
1987, 92.460000000, 24.066666667, 0.000000000
1988, 93.840000000, 24.066666667, 0.000000000
1989, 95.220000000, 24.066666667, 0.000000000
1990, 96.600000000, 24.066666667, 0.000000000
1991, 97.980000000, 24.066666667, 0.000000000
1992, 99.360000000, 24.066666667, 0.000000000
1993, 100.740000000, 24.066666667, 0.000000000
1994, 102.120000000, 24.066666667, 0.000000000
1995, 103.500000000, 24.066666667, 0.000000000
1996, 104.880000000, 24.066666667, 0.000000000
1997, 106.260000000, 24.066666667, 0.000000000
1998, 107.640000000, 24.066666667, 0.000000000
1999, 109.020000000, 24.066666667, 0.000000000
2000, 110.400000000, 24.066666667, 0.000000000
2001, 111.780000000, 24.066666667, 0.000000000
2002, 113.160000000, 24.066666667, 0.000000000
2003, 114.540000000, 24.066666667, 0.000000000
2004, 115.920000000, 24.066666667, 0.000000000
2005, 117.300000000, 24.066666667, 0.000000000
2006, 118.680000000, 24.066666667, 0.000000000
2007, 120.060000000, 24.066666667, 0.000000000
2008, 121.440000000, 24.066666667, 0.000000000
2009, 122.820000000, 24.066666667, 0.000000000
2010, 124.200000000, 24.066666667, 0.000000000
2011, 125.580000000, 24.066666667, 0.000000000
2012, 126.960000000, 24.066666667, 0.000000000
2013, 128.340000000, 24.066666667, 0.000000000
2014, 129.720000000, 24.066666667, 0.000000000
2015, 131.100000000, 24.066666667, 0.000000000
2016, 132.480000000, 24.066666667, 0.000000000
2017, 133.860000000, 24.066666667, 0.000000000
2018, 135.240000000, 24.066666667, 0.000000000
2019, 136.620000000, 24.066666667, 0.000000000
2020, 138.000000000, 24.066666667, 0.000000000
2021, 0.000000000, 25.333333333, 0.000000000
2022, 1.380000000, 25.333333333, 0.000000000
2023, 2.760000000, 25.333333333, 0.000000000
2024, 4.140000000, 25.333333333, 0.000000000
2025, 5.520000000, 25.333333333, 0.000000000
2026, 6.900000000, 25.333333333, 0.000000000
2027, 8.280000000, 25.333333333, 0.000000000
2028, 9.660000000, 25.333333333, 0.000000000
2029, 11.040000000, 25.333333333, 0.000000000
2030, 12.420000000, 25.333333333, 0.000000000
2031, 13.800000000, 25.333333333, 0.000000000
2032, 15.180000000, 25.333333333, 0.000000000
2033, 16.560000000, 25.333333333, 0.000000000
2034, 17.940000000, 25.333333333, 0.000000000
2035, 19.320000000, 25.333333333, 0.000000000
2036, 20.700000000, 25.333333333, 0.000000000
2037, 22.080000000, 25.333333333, 0.000000000
2038, 23.460000000, 25.333333333, 0.000000000
2039, 24.840000000, 25.333333333, 0.000000000
2040, 26.220000000, 25.333333333, 0.000000000
2041, 27.600000000, 25.333333333, 0.000000000
2042, 28.980000000, 25.333333333, 0.000000000
2043, 30.360000000, 25.333333333, 0.000000000
2044, 31.740000000, 25.333333333, 0.000000000
2045, 33.120000000, 25.333333333, 0.000000000
2046, 34.500000000, 25.333333333, 0.000000000
2047, 35.880000000, 25.333333333, 0.000000000
2048, 37.260000000, 25.333333333, 0.000000000
2049, 38.640000000, 25.333333333, 0.000000000
2050, 40.020000000, 25.333333333, 0.000000000
2051, 41.400000000, 25.333333333, 0.000000000
2052, 42.780000000, 25.333333333, 0.000000000
2053, 44.160000000, 25.333333333, 0.000000000
2054, 45.540000000, 25.333333333, 0.000000000
2055, 46.920000000, 25.333333333, 0.000000000
2056, 48.300000000, 25.333333333, 0.000000000
2057, 49.680000000, 25.333333333, 0.000000000
2058, 51.060000000, 25.333333333, 0.000000000
2059, 52.440000000, 25.333333333, 0.000000000
2060, 53.820000000, 25.333333333, 0.000000000
2061, 55.200000000, 25.333333333, 0.000000000
2062, 56.580000000, 25.333333333, 0.000000000
2063, 57.960000000, 25.333333333, 0.000000000
2064, 59.340000000, 25.333333333, 0.000000000
2065, 60.720000000, 25.333333333, 0.000000000
2066, 62.100000000, 25.333333333, 0.000000000
2067, 63.480000000, 25.333333333, 0.000000000
2068, 64.860000000, 25.333333333, 0.000000000
2069, 66.240000000, 25.333333333, 0.000000000
2070, 67.620000000, 25.333333333, 0.000000000
2071, 69.000000000, 25.333333333, 0.000000000
2072, 70.380000000, 25.333333333, 0.000000000
2073, 71.760000000, 25.333333333, 0.000000000
2074, 73.140000000, 25.333333333, 0.000000000
2075, 74.520000000, 25.333333333, 0.000000000
2076, 75.900000000, 25.333333333, 0.000000000
2077, 77.280000000, 25.333333333, 0.000000000
2078, 78.660000000, 25.333333333, 0.000000000
2079, 80.040000000, 25.333333333, 0.000000000
2080, 81.420000000, 25.333333333, 0.000000000
2081, 82.800000000, 25.333333333, 0.000000000
2082, 84.180000000, 25.333333333, 0.000000000
2083, 85.560000000, 25.333333333, 0.000000000
2084, 86.940000000, 25.333333333, 0.000000000
2085, 88.320000000, 25.333333333, 0.000000000
2086, 89.700000000, 25.333333333, 0.000000000
2087, 91.080000000, 25.333333333, 0.000000000
2088, 92.460000000, 25.333333333, 0.000000000
2089, 93.840000000, 25.333333333, 0.000000000
2090, 95.220000000, 25.333333333, 0.000000000
2091, 96.600000000, 25.333333333, 0.000000000
2092, 97.980000000, 25.333333333, 0.000000000
2093, 99.360000000, 25.333333333, 0.000000000
2094, 100.740000000, 25.333333333, 0.000000000
2095, 102.120000000, 25.333333333, 0.000000000
2096, 103.500000000, 25.333333333, 0.000000000
2097, 104.880000000, 25.333333333, 0.000000000
2098, 106.260000000, 25.333333333, 0.000000000
2099, 107.640000000, 25.333333333, 0.000000000
2100, 109.020000000, 25.333333333, 0.000000000
2101, 110.400000000, 25.333333333, 0.000000000
2102, 111.780000000, 25.333333333, 0.000000000
2103, 113.160000000, 25.333333333, 0.000000000
2104, 114.540000000, 25.333333333, 0.000000000
2105, 115.920000000, 25.333333333, 0.000000000
2106, 117.300000000, 25.333333333, 0.000000000
2107, 118.680000000, 25.333333333, 0.000000000
2108, 120.060000000, 25.333333333, 0.000000000
2109, 121.440000000, 25.333333333, 0.000000000
2110, 122.820000000, 25.333333333, 0.000000000
2111, 124.200000000, 25.333333333, 0.000000000
2112, 125.580000000, 25.333333333, 0.000000000
2113, 126.960000000, 25.333333333, 0.000000000
2114, 128.340000000, 25.333333333, 0.000000000
2115, 129.720000000, 25.333333333, 0.000000000
2116, 131.100000000, 25.333333333, 0.000000000
2117, 132.480000000, 25.333333333, 0.000000000
2118, 133.860000000, 25.333333333, 0.000000000
2119, 135.240000000, 25.333333333, 0.000000000
2120, 136.620000000, 25.333333333, 0.000000000
2121, 138.000000000, 25.333333333, 0.000000000
2122, 0.000000000, 26.600000000, 0.000000000
2123, 1.380000000, 26.600000000, 0.000000000
2124, 2.760000000, 26.600000000, 0.000000000
2125, 4.140000000, 26.600000000, 0.000000000
2126, 5.520000000, 26.600000000, 0.000000000
2127, 6.900000000, 26.600000000, 0.000000000
2128, 8.280000000, 26.600000000, 0.000000000
2129, 9.660000000, 26.600000000, 0.000000000
2130, 11.040000000, 26.600000000, 0.000000000
2131, 12.420000000, 26.600000000, 0.000000000
2132, 13.800000000, 26.600000000, 0.000000000
2133, 15.180000000, 26.600000000, 0.000000000
2134, 16.560000000, 26.600000000, 0.000000000
2135, 17.940000000, 26.600000000, 0.000000000
2136, 19.320000000, 26.600000000, 0.000000000
2137, 20.700000000, 26.600000000, 0.000000000
2138, 22.080000000, 26.600000000, 0.000000000
2139, 23.460000000, 26.600000000, 0.000000000
2140, 24.840000000, 26.600000000, 0.000000000
2141, 26.220000000, 26.600000000, 0.000000000
2142, 27.600000000, 26.600000000, 0.000000000
2143, 28.980000000, 26.600000000, 0.000000000
2144, 30.360000000, 26.600000000, 0.000000000
2145, 31.740000000, 26.600000000, 0.000000000
2146, 33.120000000, 26.600000000, 0.000000000
2147, 34.500000000, 26.600000000, 0.000000000
2148, 35.880000000, 26.600000000, 0.000000000
2149, 37.260000000, 26.600000000, 0.000000000
2150, 38.640000000, 26.600000000, 0.000000000
2151, 40.020000000, 26.600000000, 0.000000000
2152, 41.400000000, 26.600000000, 0.000000000
2153, 42.780000000, 26.600000000, 0.000000000
2154, 44.160000000, 26.600000000, 0.000000000
2155, 45.540000000, 26.600000000, 0.000000000
2156, 46.920000000, 26.600000000, 0.000000000
2157, 48.300000000, 26.600000000, 0.000000000
2158, 49.680000000, 26.600000000, 0.000000000
2159, 51.060000000, 26.600000000, 0.000000000
2160, 52.440000000, 26.600000000, 0.000000000
2161, 53.820000000, 26.600000000, 0.000000000
2162, 55.200000000, 26.600000000, 0.000000000
2163, 56.580000000, 26.600000000, 0.000000000
2164, 57.960000000, 26.600000000, 0.000000000
2165, 59.340000000, 26.600000000, 0.000000000
2166, 60.720000000, 26.600000000, 0.000000000
2167, 62.100000000, 26.600000000, 0.000000000
2168, 63.480000000, 26.600000000, 0.000000000
2169, 64.860000000, 26.600000000, 0.000000000
2170, 66.240000000, 26.600000000, 0.000000000
2171, 67.620000000, 26.600000000, 0.000000000
2172, 69.000000000, 26.600000000, 0.000000000
2173, 70.380000000, 26.600000000, 0.000000000
2174, 71.760000000, 26.600000000, 0.000000000
2175, 73.140000000, 26.600000000, 0.000000000
2176, 74.520000000, 26.600000000, 0.000000000
2177, 75.900000000, 26.600000000, 0.000000000
2178, 77.280000000, 26.600000000, 0.000000000
2179, 78.660000000, 26.600000000, 0.000000000
2180, 80.040000000, 26.600000000, 0.000000000
2181, 81.420000000, 26.600000000, 0.000000000
2182, 82.800000000, 26.600000000, 0.000000000
2183, 84.180000000, 26.600000000, 0.000000000
2184, 85.560000000, 26.600000000, 0.000000000
2185, 86.940000000, 26.600000000, 0.000000000
2186, 88.320000000, 26.600000000, 0.000000000
2187, 89.700000000, 26.600000000, 0.000000000
2188, 91.080000000, 26.600000000, 0.000000000
2189, 92.460000000, 26.600000000, 0.000000000
2190, 93.840000000, 26.600000000, 0.000000000
2191, 95.220000000, 26.600000000, 0.000000000
2192, 96.600000000, 26.600000000, 0.000000000
2193, 97.980000000, 26.600000000, 0.000000000
2194, 99.360000000, 26.600000000, 0.000000000
2195, 100.740000000, 26.600000000, 0.000000000
2196, 102.120000000, 26.600000000, 0.000000000
2197, 103.500000000, 26.600000000, 0.000000000
2198, 104.880000000, 26.600000000, 0.000000000
2199, 106.260000000, 26.600000000, 0.000000000
2200, 107.640000000, 26.600000000, 0.000000000
2201, 109.020000000, 26.600000000, 0.000000000
2202, 110.400000000, 26.600000000, 0.000000000
2203, 111.780000000, 26.600000000, 0.000000000
2204, 113.160000000, 26.600000000, 0.000000000
2205, 114.540000000, 26.600000000, 0.000000000
2206, 115.920000000, 26.600000000, 0.000000000
2207, 117.300000000, 26.600000000, 0.000000000
2208, 118.680000000, 26.600000000, 0.000000000
2209, 120.060000000, 26.600000000, 0.000000000
2210, 121.440000000, 26.600000000, 0.000000000
2211, 122.820000000, 26.600000000, 0.000000000
2212, 124.200000000, 26.600000000, 0.000000000
2213, 125.580000000, 26.600000000, 0.000000000
2214, 126.960000000, 26.600000000, 0.000000000
2215, 128.340000000, 26.600000000, 0.000000000
2216, 129.720000000, 26.600000000, 0.000000000
2217, 131.100000000, 26.600000000, 0.000000000
2218, 132.480000000, 26.600000000, 0.000000000
2219, 133.860000000, 26.600000000, 0.000000000
2220, 135.240000000, 26.600000000, 0.000000000
2221, 136.620000000, 26.600000000, 0.000000000
2222, 138.000000000, 26.600000000, 0.000000000
2223, 0.000000000, 27.866666667, 0.000000000
2224, 1.380000000, 27.866666667, 0.000000000
2225, 2.760000000, 27.866666667, 0.000000000
2226, 4.140000000, 27.866666667, 0.000000000
2227, 5.520000000, 27.866666667, 0.000000000
2228, 6.900000000, 27.866666667, 0.000000000
2229, 8.280000000, 27.866666667, 0.000000000
2230, 9.660000000, 27.866666667, 0.000000000
2231, 11.040000000, 27.866666667, 0.000000000
2232, 12.420000000, 27.866666667, 0.000000000
2233, 13.800000000, 27.866666667, 0.000000000
2234, 15.180000000, 27.866666667, 0.000000000
2235, 16.560000000, 27.866666667, 0.000000000
2236, 17.940000000, 27.866666667, 0.000000000
2237, 19.320000000, 27.866666667, 0.000000000
2238, 20.700000000, 27.866666667, 0.000000000
2239, 22.080000000, 27.866666667, 0.000000000
2240, 23.460000000, 27.866666667, 0.000000000
2241, 24.840000000, 27.866666667, 0.000000000
2242, 26.220000000, 27.866666667, 0.000000000
2243, 27.600000000, 27.866666667, 0.000000000
2244, 28.980000000, 27.866666667, 0.000000000
2245, 30.360000000, 27.866666667, 0.000000000
2246, 31.740000000, 27.866666667, 0.000000000
2247, 33.120000000, 27.866666667, 0.000000000
2248, 34.500000000, 27.866666667, 0.000000000
2249, 35.880000000, 27.866666667, 0.000000000
2250, 37.260000000, 27.866666667, 0.000000000
2251, 38.640000000, 27.866666667, 0.000000000
2252, 40.020000000, 27.866666667, 0.000000000
2253, 41.400000000, 27.866666667, 0.000000000
2254, 42.780000000, 27.866666667, 0.000000000
2255, 44.160000000, 27.866666667, 0.000000000
2256, 45.540000000, 27.866666667, 0.000000000
2257, 46.920000000, 27.866666667, 0.000000000
2258, 48.300000000, 27.866666667, 0.000000000
2259, 49.680000000, 27.866666667, 0.000000000
2260, 51.060000000, 27.866666667, 0.000000000
2261, 52.440000000, 27.866666667, 0.000000000
2262, 53.820000000, 27.866666667, 0.000000000
2263, 55.200000000, 27.866666667, 0.000000000
2264, 56.580000000, 27.866666667, 0.000000000
2265, 57.960000000, 27.866666667, 0.000000000
2266, 59.340000000, 27.866666667, 0.000000000
2267, 60.720000000, 27.866666667, 0.000000000
2268, 62.100000000, 27.866666667, 0.000000000
2269, 63.480000000, 27.866666667, 0.000000000
2270, 64.860000000, 27.866666667, 0.000000000
2271, 66.240000000, 27.866666667, 0.000000000
2272, 67.620000000, 27.866666667, 0.000000000
2273, 69.000000000, 27.866666667, 0.000000000
2274, 70.380000000, 27.866666667, 0.000000000
2275, 71.760000000, 27.866666667, 0.000000000
2276, 73.140000000, 27.866666667, 0.000000000
2277, 74.520000000, 27.866666667, 0.000000000
2278, 75.900000000, 27.866666667, 0.000000000
2279, 77.280000000, 27.866666667, 0.000000000
2280, 78.660000000, 27.866666667, 0.000000000
2281, 80.040000000, 27.866666667, 0.000000000
2282, 81.420000000, 27.866666667, 0.000000000
2283, 82.800000000, 27.866666667, 0.000000000
2284, 84.180000000, 27.866666667, 0.000000000
2285, 85.560000000, 27.866666667, 0.000000000
2286, 86.940000000, 27.866666667, 0.000000000
2287, 88.320000000, 27.866666667, 0.000000000
2288, 89.700000000, 27.866666667, 0.000000000
2289, 91.080000000, 27.866666667, 0.000000000
2290, 92.460000000, 27.866666667, 0.000000000
2291, 93.840000000, 27.866666667, 0.000000000
2292, 95.220000000, 27.866666667, 0.000000000
2293, 96.600000000, 27.866666667, 0.000000000
2294, 97.980000000, 27.866666667, 0.000000000
2295, 99.360000000, 27.866666667, 0.000000000
2296, 100.740000000, 27.866666667, 0.000000000
2297, 102.120000000, 27.866666667, 0.000000000
2298, 103.500000000, 27.866666667, 0.000000000
2299, 104.880000000, 27.866666667, 0.000000000
2300, 106.260000000, 27.866666667, 0.000000000
2301, 107.640000000, 27.866666667, 0.000000000
2302, 109.020000000, 27.866666667, 0.000000000
2303, 110.400000000, 27.866666667, 0.000000000
2304, 111.780000000, 27.866666667, 0.000000000
2305, 113.160000000, 27.866666667, 0.000000000
2306, 114.540000000, 27.866666667, 0.000000000
2307, 115.920000000, 27.866666667, 0.000000000
2308, 117.300000000, 27.866666667, 0.000000000
2309, 118.680000000, 27.866666667, 0.000000000
2310, 120.060000000, 27.866666667, 0.000000000
2311, 121.440000000, 27.866666667, 0.000000000
2312, 122.820000000, 27.866666667, 0.000000000
2313, 124.200000000, 27.866666667, 0.000000000
2314, 125.580000000, 27.866666667, 0.000000000
2315, 126.960000000, 27.866666667, 0.000000000
2316, 128.340000000, 27.866666667, 0.000000000
2317, 129.720000000, 27.866666667, 0.000000000
2318, 131.100000000, 27.866666667, 0.000000000
2319, 132.480000000, 27.866666667, 0.000000000
2320, 133.860000000, 27.866666667, 0.000000000
2321, 135.240000000, 27.866666667, 0.000000000
2322, 136.620000000, 27.866666667, 0.000000000
2323, 138.000000000, 27.866666667, 0.000000000
2324, 0.000000000, 29.133333333, 0.000000000
2325, 1.380000000, 29.133333333, 0.000000000
2326, 2.760000000, 29.133333333, 0.000000000
2327, 4.140000000, 29.133333333, 0.000000000
2328, 5.520000000, 29.133333333, 0.000000000
2329, 6.900000000, 29.133333333, 0.000000000
2330, 8.280000000, 29.133333333, 0.000000000
2331, 9.660000000, 29.133333333, 0.000000000
2332, 11.040000000, 29.133333333, 0.000000000
2333, 12.420000000, 29.133333333, 0.000000000
2334, 13.800000000, 29.133333333, 0.000000000
2335, 15.180000000, 29.133333333, 0.000000000
2336, 16.560000000, 29.133333333, 0.000000000
2337, 17.940000000, 29.133333333, 0.000000000
2338, 19.320000000, 29.133333333, 0.000000000
2339, 20.700000000, 29.133333333, 0.000000000
2340, 22.080000000, 29.133333333, 0.000000000
2341, 23.460000000, 29.133333333, 0.000000000
2342, 24.840000000, 29.133333333, 0.000000000
2343, 26.220000000, 29.133333333, 0.000000000
2344, 27.600000000, 29.133333333, 0.000000000
2345, 28.980000000, 29.133333333, 0.000000000
2346, 30.360000000, 29.133333333, 0.000000000
2347, 31.740000000, 29.133333333, 0.000000000
2348, 33.120000000, 29.133333333, 0.000000000
2349, 34.500000000, 29.133333333, 0.000000000
2350, 35.880000000, 29.133333333, 0.000000000
2351, 37.260000000, 29.133333333, 0.000000000
2352, 38.640000000, 29.133333333, 0.000000000
2353, 40.020000000, 29.133333333, 0.000000000
2354, 41.400000000, 29.133333333, 0.000000000
2355, 42.780000000, 29.133333333, 0.000000000
2356, 44.160000000, 29.133333333, 0.000000000
2357, 45.540000000, 29.133333333, 0.000000000
2358, 46.920000000, 29.133333333, 0.000000000
2359, 48.300000000, 29.133333333, 0.000000000
2360, 49.680000000, 29.133333333, 0.000000000
2361, 51.060000000, 29.133333333, 0.000000000
2362, 52.440000000, 29.133333333, 0.000000000
2363, 53.820000000, 29.133333333, 0.000000000
2364, 55.200000000, 29.133333333, 0.000000000
2365, 56.580000000, 29.133333333, 0.000000000
2366, 57.960000000, 29.133333333, 0.000000000
2367, 59.340000000, 29.133333333, 0.000000000
2368, 60.720000000, 29.133333333, 0.000000000
2369, 62.100000000, 29.133333333, 0.000000000
2370, 63.480000000, 29.133333333, 0.000000000
2371, 64.860000000, 29.133333333, 0.000000000
2372, 66.240000000, 29.133333333, 0.000000000
2373, 67.620000000, 29.133333333, 0.000000000
2374, 69.000000000, 29.133333333, 0.000000000
2375, 70.380000000, 29.133333333, 0.000000000
2376, 71.760000000, 29.133333333, 0.000000000
2377, 73.140000000, 29.133333333, 0.000000000
2378, 74.520000000, 29.133333333, 0.000000000
2379, 75.900000000, 29.133333333, 0.000000000
2380, 77.280000000, 29.133333333, 0.000000000
2381, 78.660000000, 29.133333333, 0.000000000
2382, 80.040000000, 29.133333333, 0.000000000
2383, 81.420000000, 29.133333333, 0.000000000
2384, 82.800000000, 29.133333333, 0.000000000
2385, 84.180000000, 29.133333333, 0.000000000
2386, 85.560000000, 29.133333333, 0.000000000
2387, 86.940000000, 29.133333333, 0.000000000
2388, 88.320000000, 29.133333333, 0.000000000
2389, 89.700000000, 29.133333333, 0.000000000
2390, 91.080000000, 29.133333333, 0.000000000
2391, 92.460000000, 29.133333333, 0.000000000
2392, 93.840000000, 29.133333333, 0.000000000
2393, 95.220000000, 29.133333333, 0.000000000
2394, 96.600000000, 29.133333333, 0.000000000
2395, 97.980000000, 29.133333333, 0.000000000
2396, 99.360000000, 29.133333333, 0.000000000
2397, 100.740000000, 29.133333333, 0.000000000
2398, 102.120000000, 29.133333333, 0.000000000
2399, 103.500000000, 29.133333333, 0.000000000
2400, 104.880000000, 29.133333333, 0.000000000
2401, 106.260000000, 29.133333333, 0.000000000
2402, 107.640000000, 29.133333333, 0.000000000
2403, 109.020000000, 29.133333333, 0.000000000
2404, 110.400000000, 29.133333333, 0.000000000
2405, 111.780000000, 29.133333333, 0.000000000
2406, 113.160000000, 29.133333333, 0.000000000
2407, 114.540000000, 29.133333333, 0.000000000
2408, 115.920000000, 29.133333333, 0.000000000
2409, 117.300000000, 29.133333333, 0.000000000
2410, 118.680000000, 29.133333333, 0.000000000
2411, 120.060000000, 29.133333333, 0.000000000
2412, 121.440000000, 29.133333333, 0.000000000
2413, 122.820000000, 29.133333333, 0.000000000
2414, 124.200000000, 29.133333333, 0.000000000
2415, 125.580000000, 29.133333333, 0.000000000
2416, 126.960000000, 29.133333333, 0.000000000
2417, 128.340000000, 29.133333333, 0.000000000
2418, 129.720000000, 29.133333333, 0.000000000
2419, 131.100000000, 29.133333333, 0.000000000
2420, 132.480000000, 29.133333333, 0.000000000
2421, 133.860000000, 29.133333333, 0.000000000
2422, 135.240000000, 29.133333333, 0.000000000
2423, 136.620000000, 29.133333333, 0.000000000
2424, 138.000000000, 29.133333333, 0.000000000
2425, 0.000000000, 30.400000000, 0.000000000
2426, 1.380000000, 30.400000000, 0.000000000
2427, 2.760000000, 30.400000000, 0.000000000
2428, 4.140000000, 30.400000000, 0.000000000
2429, 5.520000000, 30.400000000, 0.000000000
2430, 6.900000000, 30.400000000, 0.000000000
2431, 8.280000000, 30.400000000, 0.000000000
2432, 9.660000000, 30.400000000, 0.000000000
2433, 11.040000000, 30.400000000, 0.000000000
2434, 12.420000000, 30.400000000, 0.000000000
2435, 13.800000000, 30.400000000, 0.000000000
2436, 15.180000000, 30.400000000, 0.000000000
2437, 16.560000000, 30.400000000, 0.000000000
2438, 17.940000000, 30.400000000, 0.000000000
2439, 19.320000000, 30.400000000, 0.000000000
2440, 20.700000000, 30.400000000, 0.000000000
2441, 22.080000000, 30.400000000, 0.000000000
2442, 23.460000000, 30.400000000, 0.000000000
2443, 24.840000000, 30.400000000, 0.000000000
2444, 26.220000000, 30.400000000, 0.000000000
2445, 27.600000000, 30.400000000, 0.000000000
2446, 28.980000000, 30.400000000, 0.000000000
2447, 30.360000000, 30.400000000, 0.000000000
2448, 31.740000000, 30.400000000, 0.000000000
2449, 33.120000000, 30.400000000, 0.000000000
2450, 34.500000000, 30.400000000, 0.000000000
2451, 35.880000000, 30.400000000, 0.000000000
2452, 37.260000000, 30.400000000, 0.000000000
2453, 38.640000000, 30.400000000, 0.000000000
2454, 40.020000000, 30.400000000, 0.000000000
2455, 41.400000000, 30.400000000, 0.000000000
2456, 42.780000000, 30.400000000, 0.000000000
2457, 44.160000000, 30.400000000, 0.000000000
2458, 45.540000000, 30.400000000, 0.000000000
2459, 46.920000000, 30.400000000, 0.000000000
2460, 48.300000000, 30.400000000, 0.000000000
2461, 49.680000000, 30.400000000, 0.000000000
2462, 51.060000000, 30.400000000, 0.000000000
2463, 52.440000000, 30.400000000, 0.000000000
2464, 53.820000000, 30.400000000, 0.000000000
2465, 55.200000000, 30.400000000, 0.000000000
2466, 56.580000000, 30.400000000, 0.000000000
2467, 57.960000000, 30.400000000, 0.000000000
2468, 59.340000000, 30.400000000, 0.000000000
2469, 60.720000000, 30.400000000, 0.000000000
2470, 62.100000000, 30.400000000, 0.000000000
2471, 63.480000000, 30.400000000, 0.000000000
2472, 64.860000000, 30.400000000, 0.000000000
2473, 66.240000000, 30.400000000, 0.000000000
2474, 67.620000000, 30.400000000, 0.000000000
2475, 69.000000000, 30.400000000, 0.000000000
2476, 70.380000000, 30.400000000, 0.000000000
2477, 71.760000000, 30.400000000, 0.000000000
2478, 73.140000000, 30.400000000, 0.000000000
2479, 74.520000000, 30.400000000, 0.000000000
2480, 75.900000000, 30.400000000, 0.000000000
2481, 77.280000000, 30.400000000, 0.000000000
2482, 78.660000000, 30.400000000, 0.000000000
2483, 80.040000000, 30.400000000, 0.000000000
2484, 81.420000000, 30.400000000, 0.000000000
2485, 82.800000000, 30.400000000, 0.000000000
2486, 84.180000000, 30.400000000, 0.000000000
2487, 85.560000000, 30.400000000, 0.000000000
2488, 86.940000000, 30.400000000, 0.000000000
2489, 88.320000000, 30.400000000, 0.000000000
2490, 89.700000000, 30.400000000, 0.000000000
2491, 91.080000000, 30.400000000, 0.000000000
2492, 92.460000000, 30.400000000, 0.000000000
2493, 93.840000000, 30.400000000, 0.000000000
2494, 95.220000000, 30.400000000, 0.000000000
2495, 96.600000000, 30.400000000, 0.000000000
2496, 97.980000000, 30.400000000, 0.000000000
2497, 99.360000000, 30.400000000, 0.000000000
2498, 100.740000000, 30.400000000, 0.000000000
2499, 102.120000000, 30.400000000, 0.000000000
2500, 103.500000000, 30.400000000, 0.000000000
2501, 104.880000000, 30.400000000, 0.000000000
2502, 106.260000000, 30.400000000, 0.000000000
2503, 107.640000000, 30.400000000, 0.000000000
2504, 109.020000000, 30.400000000, 0.000000000
2505, 110.400000000, 30.400000000, 0.000000000
2506, 111.780000000, 30.400000000, 0.000000000
2507, 113.160000000, 30.400000000, 0.000000000
2508, 114.540000000, 30.400000000, 0.000000000
2509, 115.920000000, 30.400000000, 0.000000000
2510, 117.300000000, 30.400000000, 0.000000000
2511, 118.680000000, 30.400000000, 0.000000000
2512, 120.060000000, 30.400000000, 0.000000000
2513, 121.440000000, 30.400000000, 0.000000000
2514, 122.820000000, 30.400000000, 0.000000000
2515, 124.200000000, 30.400000000, 0.000000000
2516, 125.580000000, 30.400000000, 0.000000000
2517, 126.960000000, 30.400000000, 0.000000000
2518, 128.340000000, 30.400000000, 0.000000000
2519, 129.720000000, 30.400000000, 0.000000000
2520, 131.100000000, 30.400000000, 0.000000000
2521, 132.480000000, 30.400000000, 0.000000000
2522, 133.860000000, 30.400000000, 0.000000000
2523, 135.240000000, 30.400000000, 0.000000000
2524, 136.620000000, 30.400000000, 0.000000000
2525, 138.000000000, 30.400000000, 0.000000000
2526, 0.000000000, 31.666666667, 0.000000000
2527, 1.380000000, 31.666666667, 0.000000000
2528, 2.760000000, 31.666666667, 0.000000000
2529, 4.140000000, 31.666666667, 0.000000000
2530, 5.520000000, 31.666666667, 0.000000000
2531, 6.900000000, 31.666666667, 0.000000000
2532, 8.280000000, 31.666666667, 0.000000000
2533, 9.660000000, 31.666666667, 0.000000000
2534, 11.040000000, 31.666666667, 0.000000000
2535, 12.420000000, 31.666666667, 0.000000000
2536, 13.800000000, 31.666666667, 0.000000000
2537, 15.180000000, 31.666666667, 0.000000000
2538, 16.560000000, 31.666666667, 0.000000000
2539, 17.940000000, 31.666666667, 0.000000000
2540, 19.320000000, 31.666666667, 0.000000000
2541, 20.700000000, 31.666666667, 0.000000000
2542, 22.080000000, 31.666666667, 0.000000000
2543, 23.460000000, 31.666666667, 0.000000000
2544, 24.840000000, 31.666666667, 0.000000000
2545, 26.220000000, 31.666666667, 0.000000000
2546, 27.600000000, 31.666666667, 0.000000000
2547, 28.980000000, 31.666666667, 0.000000000
2548, 30.360000000, 31.666666667, 0.000000000
2549, 31.740000000, 31.666666667, 0.000000000
2550, 33.120000000, 31.666666667, 0.000000000
2551, 34.500000000, 31.666666667, 0.000000000
2552, 35.880000000, 31.666666667, 0.000000000
2553, 37.260000000, 31.666666667, 0.000000000
2554, 38.640000000, 31.666666667, 0.000000000
2555, 40.020000000, 31.666666667, 0.000000000
2556, 41.400000000, 31.666666667, 0.000000000
2557, 42.780000000, 31.666666667, 0.000000000
2558, 44.160000000, 31.666666667, 0.000000000
2559, 45.540000000, 31.666666667, 0.000000000
2560, 46.920000000, 31.666666667, 0.000000000
2561, 48.300000000, 31.666666667, 0.000000000
2562, 49.680000000, 31.666666667, 0.000000000
2563, 51.060000000, 31.666666667, 0.000000000
2564, 52.440000000, 31.666666667, 0.000000000
2565, 53.820000000, 31.666666667, 0.000000000
2566, 55.200000000, 31.666666667, 0.000000000
2567, 56.580000000, 31.666666667, 0.000000000
2568, 57.960000000, 31.666666667, 0.000000000
2569, 59.340000000, 31.666666667, 0.000000000
2570, 60.720000000, 31.666666667, 0.000000000
2571, 62.100000000, 31.666666667, 0.000000000
2572, 63.480000000, 31.666666667, 0.000000000
2573, 64.860000000, 31.666666667, 0.000000000
2574, 66.240000000, 31.666666667, 0.000000000
2575, 67.620000000, 31.666666667, 0.000000000
2576, 69.000000000, 31.666666667, 0.000000000
2577, 70.380000000, 31.666666667, 0.000000000
2578, 71.760000000, 31.666666667, 0.000000000
2579, 73.140000000, 31.666666667, 0.000000000
2580, 74.520000000, 31.666666667, 0.000000000
2581, 75.900000000, 31.666666667, 0.000000000
2582, 77.280000000, 31.666666667, 0.000000000
2583, 78.660000000, 31.666666667, 0.000000000
2584, 80.040000000, 31.666666667, 0.000000000
2585, 81.420000000, 31.666666667, 0.000000000
2586, 82.800000000, 31.666666667, 0.000000000
2587, 84.180000000, 31.666666667, 0.000000000
2588, 85.560000000, 31.666666667, 0.000000000
2589, 86.940000000, 31.666666667, 0.000000000
2590, 88.320000000, 31.666666667, 0.000000000
2591, 89.700000000, 31.666666667, 0.000000000
2592, 91.080000000, 31.666666667, 0.000000000
2593, 92.460000000, 31.666666667, 0.000000000
2594, 93.840000000, 31.666666667, 0.000000000
2595, 95.220000000, 31.666666667, 0.000000000
2596, 96.600000000, 31.666666667, 0.000000000
2597, 97.980000000, 31.666666667, 0.000000000
2598, 99.360000000, 31.666666667, 0.000000000
2599, 100.740000000, 31.666666667, 0.000000000
2600, 102.120000000, 31.666666667, 0.000000000
2601, 103.500000000, 31.666666667, 0.000000000
2602, 104.880000000, 31.666666667, 0.000000000
2603, 106.260000000, 31.666666667, 0.000000000
2604, 107.640000000, 31.666666667, 0.000000000
2605, 109.020000000, 31.666666667, 0.000000000
2606, 110.400000000, 31.666666667, 0.000000000
2607, 111.780000000, 31.666666667, 0.000000000
2608, 113.160000000, 31.666666667, 0.000000000
2609, 114.540000000, 31.666666667, 0.000000000
2610, 115.920000000, 31.666666667, 0.000000000
2611, 117.300000000, 31.666666667, 0.000000000
2612, 118.680000000, 31.666666667, 0.000000000
2613, 120.060000000, 31.666666667, 0.000000000
2614, 121.440000000, 31.666666667, 0.000000000
2615, 122.820000000, 31.666666667, 0.000000000
2616, 124.200000000, 31.666666667, 0.000000000
2617, 125.580000000, 31.666666667, 0.000000000
2618, 126.960000000, 31.666666667, 0.000000000
2619, 128.340000000, 31.666666667, 0.000000000
2620, 129.720000000, 31.666666667, 0.000000000
2621, 131.100000000, 31.666666667, 0.000000000
2622, 132.480000000, 31.666666667, 0.000000000
2623, 133.860000000, 31.666666667, 0.000000000
2624, 135.240000000, 31.666666667, 0.000000000
2625, 136.620000000, 31.666666667, 0.000000000
2626, 138.000000000, 31.666666667, 0.000000000
2627, 0.000000000, 32.933333333, 0.000000000
2628, 1.380000000, 32.933333333, 0.000000000
2629, 2.760000000, 32.933333333, 0.000000000
2630, 4.140000000, 32.933333333, 0.000000000
2631, 5.520000000, 32.933333333, 0.000000000
2632, 6.900000000, 32.933333333, 0.000000000
2633, 8.280000000, 32.933333333, 0.000000000
2634, 9.660000000, 32.933333333, 0.000000000
2635, 11.040000000, 32.933333333, 0.000000000
2636, 12.420000000, 32.933333333, 0.000000000
2637, 13.800000000, 32.933333333, 0.000000000
2638, 15.180000000, 32.933333333, 0.000000000
2639, 16.560000000, 32.933333333, 0.000000000
2640, 17.940000000, 32.933333333, 0.000000000
2641, 19.320000000, 32.933333333, 0.000000000
2642, 20.700000000, 32.933333333, 0.000000000
2643, 22.080000000, 32.933333333, 0.000000000
2644, 23.460000000, 32.933333333, 0.000000000
2645, 24.840000000, 32.933333333, 0.000000000
2646, 26.220000000, 32.933333333, 0.000000000
2647, 27.600000000, 32.933333333, 0.000000000
2648, 28.980000000, 32.933333333, 0.000000000
2649, 30.360000000, 32.933333333, 0.000000000
2650, 31.740000000, 32.933333333, 0.000000000
2651, 33.120000000, 32.933333333, 0.000000000
2652, 34.500000000, 32.933333333, 0.000000000
2653, 35.880000000, 32.933333333, 0.000000000
2654, 37.260000000, 32.933333333, 0.000000000
2655, 38.640000000, 32.933333333, 0.000000000
2656, 40.020000000, 32.933333333, 0.000000000
2657, 41.400000000, 32.933333333, 0.000000000
2658, 42.780000000, 32.933333333, 0.000000000
2659, 44.160000000, 32.933333333, 0.000000000
2660, 45.540000000, 32.933333333, 0.000000000
2661, 46.920000000, 32.933333333, 0.000000000
2662, 48.300000000, 32.933333333, 0.000000000
2663, 49.680000000, 32.933333333, 0.000000000
2664, 51.060000000, 32.933333333, 0.000000000
2665, 52.440000000, 32.933333333, 0.000000000
2666, 53.820000000, 32.933333333, 0.000000000
2667, 55.200000000, 32.933333333, 0.000000000
2668, 56.580000000, 32.933333333, 0.000000000
2669, 57.960000000, 32.933333333, 0.000000000
2670, 59.340000000, 32.933333333, 0.000000000
2671, 60.720000000, 32.933333333, 0.000000000
2672, 62.100000000, 32.933333333, 0.000000000
2673, 63.480000000, 32.933333333, 0.000000000
2674, 64.860000000, 32.933333333, 0.000000000
2675, 66.240000000, 32.933333333, 0.000000000
2676, 67.620000000, 32.933333333, 0.000000000
2677, 69.000000000, 32.933333333, 0.000000000
2678, 70.380000000, 32.933333333, 0.000000000
2679, 71.760000000, 32.933333333, 0.000000000
2680, 73.140000000, 32.933333333, 0.000000000
2681, 74.520000000, 32.933333333, 0.000000000
2682, 75.900000000, 32.933333333, 0.000000000
2683, 77.280000000, 32.933333333, 0.000000000
2684, 78.660000000, 32.933333333, 0.000000000
2685, 80.040000000, 32.933333333, 0.000000000
2686, 81.420000000, 32.933333333, 0.000000000
2687, 82.800000000, 32.933333333, 0.000000000
2688, 84.180000000, 32.933333333, 0.000000000
2689, 85.560000000, 32.933333333, 0.000000000
2690, 86.940000000, 32.933333333, 0.000000000
2691, 88.320000000, 32.933333333, 0.000000000
2692, 89.700000000, 32.933333333, 0.000000000
2693, 91.080000000, 32.933333333, 0.000000000
2694, 92.460000000, 32.933333333, 0.000000000
2695, 93.840000000, 32.933333333, 0.000000000
2696, 95.220000000, 32.933333333, 0.000000000
2697, 96.600000000, 32.933333333, 0.000000000
2698, 97.980000000, 32.933333333, 0.000000000
2699, 99.360000000, 32.933333333, 0.000000000
2700, 100.740000000, 32.933333333, 0.000000000
2701, 102.120000000, 32.933333333, 0.000000000
2702, 103.500000000, 32.933333333, 0.000000000
2703, 104.880000000, 32.933333333, 0.000000000
2704, 106.260000000, 32.933333333, 0.000000000
2705, 107.640000000, 32.933333333, 0.000000000
2706, 109.020000000, 32.933333333, 0.000000000
2707, 110.400000000, 32.933333333, 0.000000000
2708, 111.780000000, 32.933333333, 0.000000000
2709, 113.160000000, 32.933333333, 0.000000000
2710, 114.540000000, 32.933333333, 0.000000000
2711, 115.920000000, 32.933333333, 0.000000000
2712, 117.300000000, 32.933333333, 0.000000000
2713, 118.680000000, 32.933333333, 0.000000000
2714, 120.060000000, 32.933333333, 0.000000000
2715, 121.440000000, 32.933333333, 0.000000000
2716, 122.820000000, 32.933333333, 0.000000000
2717, 124.200000000, 32.933333333, 0.000000000
2718, 125.580000000, 32.933333333, 0.000000000
2719, 126.960000000, 32.933333333, 0.000000000
2720, 128.340000000, 32.933333333, 0.000000000
2721, 129.720000000, 32.933333333, 0.000000000
2722, 131.100000000, 32.933333333, 0.000000000
2723, 132.480000000, 32.933333333, 0.000000000
2724, 133.860000000, 32.933333333, 0.000000000
2725, 135.240000000, 32.933333333, 0.000000000
2726, 136.620000000, 32.933333333, 0.000000000
2727, 138.000000000, 32.933333333, 0.000000000
2728, 0.000000000, 34.200000000, 0.000000000
2729, 1.380000000, 34.200000000, 0.000000000
2730, 2.760000000, 34.200000000, 0.000000000
2731, 4.140000000, 34.200000000, 0.000000000
2732, 5.520000000, 34.200000000, 0.000000000
2733, 6.900000000, 34.200000000, 0.000000000
2734, 8.280000000, 34.200000000, 0.000000000
2735, 9.660000000, 34.200000000, 0.000000000
2736, 11.040000000, 34.200000000, 0.000000000
2737, 12.420000000, 34.200000000, 0.000000000
2738, 13.800000000, 34.200000000, 0.000000000
2739, 15.180000000, 34.200000000, 0.000000000
2740, 16.560000000, 34.200000000, 0.000000000
2741, 17.940000000, 34.200000000, 0.000000000
2742, 19.320000000, 34.200000000, 0.000000000
2743, 20.700000000, 34.200000000, 0.000000000
2744, 22.080000000, 34.200000000, 0.000000000
2745, 23.460000000, 34.200000000, 0.000000000
2746, 24.840000000, 34.200000000, 0.000000000
2747, 26.220000000, 34.200000000, 0.000000000
2748, 27.600000000, 34.200000000, 0.000000000
2749, 28.980000000, 34.200000000, 0.000000000
2750, 30.360000000, 34.200000000, 0.000000000
2751, 31.740000000, 34.200000000, 0.000000000
2752, 33.120000000, 34.200000000, 0.000000000
2753, 34.500000000, 34.200000000, 0.000000000
2754, 35.880000000, 34.200000000, 0.000000000
2755, 37.260000000, 34.200000000, 0.000000000
2756, 38.640000000, 34.200000000, 0.000000000
2757, 40.020000000, 34.200000000, 0.000000000
2758, 41.400000000, 34.200000000, 0.000000000
2759, 42.780000000, 34.200000000, 0.000000000
2760, 44.160000000, 34.200000000, 0.000000000
2761, 45.540000000, 34.200000000, 0.000000000
2762, 46.920000000, 34.200000000, 0.000000000
2763, 48.300000000, 34.200000000, 0.000000000
2764, 49.680000000, 34.200000000, 0.000000000
2765, 51.060000000, 34.200000000, 0.000000000
2766, 52.440000000, 34.200000000, 0.000000000
2767, 53.820000000, 34.200000000, 0.000000000
2768, 55.200000000, 34.200000000, 0.000000000
2769, 56.580000000, 34.200000000, 0.000000000
2770, 57.960000000, 34.200000000, 0.000000000
2771, 59.340000000, 34.200000000, 0.000000000
2772, 60.720000000, 34.200000000, 0.000000000
2773, 62.100000000, 34.200000000, 0.000000000
2774, 63.480000000, 34.200000000, 0.000000000
2775, 64.860000000, 34.200000000, 0.000000000
2776, 66.240000000, 34.200000000, 0.000000000
2777, 67.620000000, 34.200000000, 0.000000000
2778, 69.000000000, 34.200000000, 0.000000000
2779, 70.380000000, 34.200000000, 0.000000000
2780, 71.760000000, 34.200000000, 0.000000000
2781, 73.140000000, 34.200000000, 0.000000000
2782, 74.520000000, 34.200000000, 0.000000000
2783, 75.900000000, 34.200000000, 0.000000000
2784, 77.280000000, 34.200000000, 0.000000000
2785, 78.660000000, 34.200000000, 0.000000000
2786, 80.040000000, 34.200000000, 0.000000000
2787, 81.420000000, 34.200000000, 0.000000000
2788, 82.800000000, 34.200000000, 0.000000000
2789, 84.180000000, 34.200000000, 0.000000000
2790, 85.560000000, 34.200000000, 0.000000000
2791, 86.940000000, 34.200000000, 0.000000000
2792, 88.320000000, 34.200000000, 0.000000000
2793, 89.700000000, 34.200000000, 0.000000000
2794, 91.080000000, 34.200000000, 0.000000000
2795, 92.460000000, 34.200000000, 0.000000000
2796, 93.840000000, 34.200000000, 0.000000000
2797, 95.220000000, 34.200000000, 0.000000000
2798, 96.600000000, 34.200000000, 0.000000000
2799, 97.980000000, 34.200000000, 0.000000000
2800, 99.360000000, 34.200000000, 0.000000000
2801, 100.740000000, 34.200000000, 0.000000000
2802, 102.120000000, 34.200000000, 0.000000000
2803, 103.500000000, 34.200000000, 0.000000000
2804, 104.880000000, 34.200000000, 0.000000000
2805, 106.260000000, 34.200000000, 0.000000000
2806, 107.640000000, 34.200000000, 0.000000000
2807, 109.020000000, 34.200000000, 0.000000000
2808, 110.400000000, 34.200000000, 0.000000000
2809, 111.780000000, 34.200000000, 0.000000000
2810, 113.160000000, 34.200000000, 0.000000000
2811, 114.540000000, 34.200000000, 0.000000000
2812, 115.920000000, 34.200000000, 0.000000000
2813, 117.300000000, 34.200000000, 0.000000000
2814, 118.680000000, 34.200000000, 0.000000000
2815, 120.060000000, 34.200000000, 0.000000000
2816, 121.440000000, 34.200000000, 0.000000000
2817, 122.820000000, 34.200000000, 0.000000000
2818, 124.200000000, 34.200000000, 0.000000000
2819, 125.580000000, 34.200000000, 0.000000000
2820, 126.960000000, 34.200000000, 0.000000000
2821, 128.340000000, 34.200000000, 0.000000000
2822, 129.720000000, 34.200000000, 0.000000000
2823, 131.100000000, 34.200000000, 0.000000000
2824, 132.480000000, 34.200000000, 0.000000000
2825, 133.860000000, 34.200000000, 0.000000000
2826, 135.240000000, 34.200000000, 0.000000000
2827, 136.620000000, 34.200000000, 0.000000000
2828, 138.000000000, 34.200000000, 0.000000000
2829, 0.000000000, 35.466666667, 0.000000000
2830, 1.380000000, 35.466666667, 0.000000000
2831, 2.760000000, 35.466666667, 0.000000000
2832, 4.140000000, 35.466666667, 0.000000000
2833, 5.520000000, 35.466666667, 0.000000000
2834, 6.900000000, 35.466666667, 0.000000000
2835, 8.280000000, 35.466666667, 0.000000000
2836, 9.660000000, 35.466666667, 0.000000000
2837, 11.040000000, 35.466666667, 0.000000000
2838, 12.420000000, 35.466666667, 0.000000000
2839, 13.800000000, 35.466666667, 0.000000000
2840, 15.180000000, 35.466666667, 0.000000000
2841, 16.560000000, 35.466666667, 0.000000000
2842, 17.940000000, 35.466666667, 0.000000000
2843, 19.320000000, 35.466666667, 0.000000000
2844, 20.700000000, 35.466666667, 0.000000000
2845, 22.080000000, 35.466666667, 0.000000000
2846, 23.460000000, 35.466666667, 0.000000000
2847, 24.840000000, 35.466666667, 0.000000000
2848, 26.220000000, 35.466666667, 0.000000000
2849, 27.600000000, 35.466666667, 0.000000000
2850, 28.980000000, 35.466666667, 0.000000000
2851, 30.360000000, 35.466666667, 0.000000000
2852, 31.740000000, 35.466666667, 0.000000000
2853, 33.120000000, 35.466666667, 0.000000000
2854, 34.500000000, 35.466666667, 0.000000000
2855, 35.880000000, 35.466666667, 0.000000000
2856, 37.260000000, 35.466666667, 0.000000000
2857, 38.640000000, 35.466666667, 0.000000000
2858, 40.020000000, 35.466666667, 0.000000000
2859, 41.400000000, 35.466666667, 0.000000000
2860, 42.780000000, 35.466666667, 0.000000000
2861, 44.160000000, 35.466666667, 0.000000000
2862, 45.540000000, 35.466666667, 0.000000000
2863, 46.920000000, 35.466666667, 0.000000000
2864, 48.300000000, 35.466666667, 0.000000000
2865, 49.680000000, 35.466666667, 0.000000000
2866, 51.060000000, 35.466666667, 0.000000000
2867, 52.440000000, 35.466666667, 0.000000000
2868, 53.820000000, 35.466666667, 0.000000000
2869, 55.200000000, 35.466666667, 0.000000000
2870, 56.580000000, 35.466666667, 0.000000000
2871, 57.960000000, 35.466666667, 0.000000000
2872, 59.340000000, 35.466666667, 0.000000000
2873, 60.720000000, 35.466666667, 0.000000000
2874, 62.100000000, 35.466666667, 0.000000000
2875, 63.480000000, 35.466666667, 0.000000000
2876, 64.860000000, 35.466666667, 0.000000000
2877, 66.240000000, 35.466666667, 0.000000000
2878, 67.620000000, 35.466666667, 0.000000000
2879, 69.000000000, 35.466666667, 0.000000000
2880, 70.380000000, 35.466666667, 0.000000000
2881, 71.760000000, 35.466666667, 0.000000000
2882, 73.140000000, 35.466666667, 0.000000000
2883, 74.520000000, 35.466666667, 0.000000000
2884, 75.900000000, 35.466666667, 0.000000000
2885, 77.280000000, 35.466666667, 0.000000000
2886, 78.660000000, 35.466666667, 0.000000000
2887, 80.040000000, 35.466666667, 0.000000000
2888, 81.420000000, 35.466666667, 0.000000000
2889, 82.800000000, 35.466666667, 0.000000000
2890, 84.180000000, 35.466666667, 0.000000000
2891, 85.560000000, 35.466666667, 0.000000000
2892, 86.940000000, 35.466666667, 0.000000000
2893, 88.320000000, 35.466666667, 0.000000000
2894, 89.700000000, 35.466666667, 0.000000000
2895, 91.080000000, 35.466666667, 0.000000000
2896, 92.460000000, 35.466666667, 0.000000000
2897, 93.840000000, 35.466666667, 0.000000000
2898, 95.220000000, 35.466666667, 0.000000000
2899, 96.600000000, 35.466666667, 0.000000000
2900, 97.980000000, 35.466666667, 0.000000000
2901, 99.360000000, 35.466666667, 0.000000000
2902, 100.740000000, 35.466666667, 0.000000000
2903, 102.120000000, 35.466666667, 0.000000000
2904, 103.500000000, 35.466666667, 0.000000000
2905, 104.880000000, 35.466666667, 0.000000000
2906, 106.260000000, 35.466666667, 0.000000000
2907, 107.640000000, 35.466666667, 0.000000000
2908, 109.020000000, 35.466666667, 0.000000000
2909, 110.400000000, 35.466666667, 0.000000000
2910, 111.780000000, 35.466666667, 0.000000000
2911, 113.160000000, 35.466666667, 0.000000000
2912, 114.540000000, 35.466666667, 0.000000000
2913, 115.920000000, 35.466666667, 0.000000000
2914, 117.300000000, 35.466666667, 0.000000000
2915, 118.680000000, 35.466666667, 0.000000000
2916, 120.060000000, 35.466666667, 0.000000000
2917, 121.440000000, 35.466666667, 0.000000000
2918, 122.820000000, 35.466666667, 0.000000000
2919, 124.200000000, 35.466666667, 0.000000000
2920, 125.580000000, 35.466666667, 0.000000000
2921, 126.960000000, 35.466666667, 0.000000000
2922, 128.340000000, 35.466666667, 0.000000000
2923, 129.720000000, 35.466666667, 0.000000000
2924, 131.100000000, 35.466666667, 0.000000000
2925, 132.480000000, 35.466666667, 0.000000000
2926, 133.860000000, 35.466666667, 0.000000000
2927, 135.240000000, 35.466666667, 0.000000000
2928, 136.620000000, 35.466666667, 0.000000000
2929, 138.000000000, 35.466666667, 0.000000000
2930, 0.000000000, 36.733333333, 0.000000000
2931, 1.380000000, 36.733333333, 0.000000000
2932, 2.760000000, 36.733333333, 0.000000000
2933, 4.140000000, 36.733333333, 0.000000000
2934, 5.520000000, 36.733333333, 0.000000000
2935, 6.900000000, 36.733333333, 0.000000000
2936, 8.280000000, 36.733333333, 0.000000000
2937, 9.660000000, 36.733333333, 0.000000000
2938, 11.040000000, 36.733333333, 0.000000000
2939, 12.420000000, 36.733333333, 0.000000000
2940, 13.800000000, 36.733333333, 0.000000000
2941, 15.180000000, 36.733333333, 0.000000000
2942, 16.560000000, 36.733333333, 0.000000000
2943, 17.940000000, 36.733333333, 0.000000000
2944, 19.320000000, 36.733333333, 0.000000000
2945, 20.700000000, 36.733333333, 0.000000000
2946, 22.080000000, 36.733333333, 0.000000000
2947, 23.460000000, 36.733333333, 0.000000000
2948, 24.840000000, 36.733333333, 0.000000000
2949, 26.220000000, 36.733333333, 0.000000000
2950, 27.600000000, 36.733333333, 0.000000000
2951, 28.980000000, 36.733333333, 0.000000000
2952, 30.360000000, 36.733333333, 0.000000000
2953, 31.740000000, 36.733333333, 0.000000000
2954, 33.120000000, 36.733333333, 0.000000000
2955, 34.500000000, 36.733333333, 0.000000000
2956, 35.880000000, 36.733333333, 0.000000000
2957, 37.260000000, 36.733333333, 0.000000000
2958, 38.640000000, 36.733333333, 0.000000000
2959, 40.020000000, 36.733333333, 0.000000000
2960, 41.400000000, 36.733333333, 0.000000000
2961, 42.780000000, 36.733333333, 0.000000000
2962, 44.160000000, 36.733333333, 0.000000000
2963, 45.540000000, 36.733333333, 0.000000000
2964, 46.920000000, 36.733333333, 0.000000000
2965, 48.300000000, 36.733333333, 0.000000000
2966, 49.680000000, 36.733333333, 0.000000000
2967, 51.060000000, 36.733333333, 0.000000000
2968, 52.440000000, 36.733333333, 0.000000000
2969, 53.820000000, 36.733333333, 0.000000000
2970, 55.200000000, 36.733333333, 0.000000000
2971, 56.580000000, 36.733333333, 0.000000000
2972, 57.960000000, 36.733333333, 0.000000000
2973, 59.340000000, 36.733333333, 0.000000000
2974, 60.720000000, 36.733333333, 0.000000000
2975, 62.100000000, 36.733333333, 0.000000000
2976, 63.480000000, 36.733333333, 0.000000000
2977, 64.860000000, 36.733333333, 0.000000000
2978, 66.240000000, 36.733333333, 0.000000000
2979, 67.620000000, 36.733333333, 0.000000000
2980, 69.000000000, 36.733333333, 0.000000000
2981, 70.380000000, 36.733333333, 0.000000000
2982, 71.760000000, 36.733333333, 0.000000000
2983, 73.140000000, 36.733333333, 0.000000000
2984, 74.520000000, 36.733333333, 0.000000000
2985, 75.900000000, 36.733333333, 0.000000000
2986, 77.280000000, 36.733333333, 0.000000000
2987, 78.660000000, 36.733333333, 0.000000000
2988, 80.040000000, 36.733333333, 0.000000000
2989, 81.420000000, 36.733333333, 0.000000000
2990, 82.800000000, 36.733333333, 0.000000000
2991, 84.180000000, 36.733333333, 0.000000000
2992, 85.560000000, 36.733333333, 0.000000000
2993, 86.940000000, 36.733333333, 0.000000000
2994, 88.320000000, 36.733333333, 0.000000000
2995, 89.700000000, 36.733333333, 0.000000000
2996, 91.080000000, 36.733333333, 0.000000000
2997, 92.460000000, 36.733333333, 0.000000000
2998, 93.840000000, 36.733333333, 0.000000000
2999, 95.220000000, 36.733333333, 0.000000000
3000, 96.600000000, 36.733333333, 0.000000000
3001, 97.980000000, 36.733333333, 0.000000000
3002, 99.360000000, 36.733333333, 0.000000000
3003, 100.740000000, 36.733333333, 0.000000000
3004, 102.120000000, 36.733333333, 0.000000000
3005, 103.500000000, 36.733333333, 0.000000000
3006, 104.880000000, 36.733333333, 0.000000000
3007, 106.260000000, 36.733333333, 0.000000000
3008, 107.640000000, 36.733333333, 0.000000000
3009, 109.020000000, 36.733333333, 0.000000000
3010, 110.400000000, 36.733333333, 0.000000000
3011, 111.780000000, 36.733333333, 0.000000000
3012, 113.160000000, 36.733333333, 0.000000000
3013, 114.540000000, 36.733333333, 0.000000000
3014, 115.920000000, 36.733333333, 0.000000000
3015, 117.300000000, 36.733333333, 0.000000000
3016, 118.680000000, 36.733333333, 0.000000000
3017, 120.060000000, 36.733333333, 0.000000000
3018, 121.440000000, 36.733333333, 0.000000000
3019, 122.820000000, 36.733333333, 0.000000000
3020, 124.200000000, 36.733333333, 0.000000000
3021, 125.580000000, 36.733333333, 0.000000000
3022, 126.960000000, 36.733333333, 0.000000000
3023, 128.340000000, 36.733333333, 0.000000000
3024, 129.720000000, 36.733333333, 0.000000000
3025, 131.100000000, 36.733333333, 0.000000000
3026, 132.480000000, 36.733333333, 0.000000000
3027, 133.860000000, 36.733333333, 0.000000000
3028, 135.240000000, 36.733333333, 0.000000000
3029, 136.620000000, 36.733333333, 0.000000000
3030, 138.000000000, 36.733333333, 0.000000000
3031, 0.000000000, 38.000000000, 0.000000000
3032, 1.380000000, 38.000000000, 0.000000000
3033, 2.760000000, 38.000000000, 0.000000000
3034, 4.140000000, 38.000000000, 0.000000000
3035, 5.520000000, 38.000000000, 0.000000000
3036, 6.900000000, 38.000000000, 0.000000000
3037, 8.280000000, 38.000000000, 0.000000000
3038, 9.660000000, 38.000000000, 0.000000000
3039, 11.040000000, 38.000000000, 0.000000000
3040, 12.420000000, 38.000000000, 0.000000000
3041, 13.800000000, 38.000000000, 0.000000000
3042, 15.180000000, 38.000000000, 0.000000000
3043, 16.560000000, 38.000000000, 0.000000000
3044, 17.940000000, 38.000000000, 0.000000000
3045, 19.320000000, 38.000000000, 0.000000000
3046, 20.700000000, 38.000000000, 0.000000000
3047, 22.080000000, 38.000000000, 0.000000000
3048, 23.460000000, 38.000000000, 0.000000000
3049, 24.840000000, 38.000000000, 0.000000000
3050, 26.220000000, 38.000000000, 0.000000000
3051, 27.600000000, 38.000000000, 0.000000000
3052, 28.980000000, 38.000000000, 0.000000000
3053, 30.360000000, 38.000000000, 0.000000000
3054, 31.740000000, 38.000000000, 0.000000000
3055, 33.120000000, 38.000000000, 0.000000000
3056, 34.500000000, 38.000000000, 0.000000000
3057, 35.880000000, 38.000000000, 0.000000000
3058, 37.260000000, 38.000000000, 0.000000000
3059, 38.640000000, 38.000000000, 0.000000000
3060, 40.020000000, 38.000000000, 0.000000000
3061, 41.400000000, 38.000000000, 0.000000000
3062, 42.780000000, 38.000000000, 0.000000000
3063, 44.160000000, 38.000000000, 0.000000000
3064, 45.540000000, 38.000000000, 0.000000000
3065, 46.920000000, 38.000000000, 0.000000000
3066, 48.300000000, 38.000000000, 0.000000000
3067, 49.680000000, 38.000000000, 0.000000000
3068, 51.060000000, 38.000000000, 0.000000000
3069, 52.440000000, 38.000000000, 0.000000000
3070, 53.820000000, 38.000000000, 0.000000000
3071, 55.200000000, 38.000000000, 0.000000000
3072, 56.580000000, 38.000000000, 0.000000000
3073, 57.960000000, 38.000000000, 0.000000000
3074, 59.340000000, 38.000000000, 0.000000000
3075, 60.720000000, 38.000000000, 0.000000000
3076, 62.100000000, 38.000000000, 0.000000000
3077, 63.480000000, 38.000000000, 0.000000000
3078, 64.860000000, 38.000000000, 0.000000000
3079, 66.240000000, 38.000000000, 0.000000000
3080, 67.620000000, 38.000000000, 0.000000000
3081, 69.000000000, 38.000000000, 0.000000000
3082, 70.380000000, 38.000000000, 0.000000000
3083, 71.760000000, 38.000000000, 0.000000000
3084, 73.140000000, 38.000000000, 0.000000000
3085, 74.520000000, 38.000000000, 0.000000000
3086, 75.900000000, 38.000000000, 0.000000000
3087, 77.280000000, 38.000000000, 0.000000000
3088, 78.660000000, 38.000000000, 0.000000000
3089, 80.040000000, 38.000000000, 0.000000000
3090, 81.420000000, 38.000000000, 0.000000000
3091, 82.800000000, 38.000000000, 0.000000000
3092, 84.180000000, 38.000000000, 0.000000000
3093, 85.560000000, 38.000000000, 0.000000000
3094, 86.940000000, 38.000000000, 0.000000000
3095, 88.320000000, 38.000000000, 0.000000000
3096, 89.700000000, 38.000000000, 0.000000000
3097, 91.080000000, 38.000000000, 0.000000000
3098, 92.460000000, 38.000000000, 0.000000000
3099, 93.840000000, 38.000000000, 0.000000000
3100, 95.220000000, 38.000000000, 0.000000000
3101, 96.600000000, 38.000000000, 0.000000000
3102, 97.980000000, 38.000000000, 0.000000000
3103, 99.360000000, 38.000000000, 0.000000000
3104, 100.740000000, 38.000000000, 0.000000000
3105, 102.120000000, 38.000000000, 0.000000000
3106, 103.500000000, 38.000000000, 0.000000000
3107, 104.880000000, 38.000000000, 0.000000000
3108, 106.260000000, 38.000000000, 0.000000000
3109, 107.640000000, 38.000000000, 0.000000000
3110, 109.020000000, 38.000000000, 0.000000000
3111, 110.400000000, 38.000000000, 0.000000000
3112, 111.780000000, 38.000000000, 0.000000000
3113, 113.160000000, 38.000000000, 0.000000000
3114, 114.540000000, 38.000000000, 0.000000000
3115, 115.920000000, 38.000000000, 0.000000000
3116, 117.300000000, 38.000000000, 0.000000000
3117, 118.680000000, 38.000000000, 0.000000000
3118, 120.060000000, 38.000000000, 0.000000000
3119, 121.440000000, 38.000000000, 0.000000000
3120, 122.820000000, 38.000000000, 0.000000000
3121, 124.200000000, 38.000000000, 0.000000000
3122, 125.580000000, 38.000000000, 0.000000000
3123, 126.960000000, 38.000000000, 0.000000000
3124, 128.340000000, 38.000000000, 0.000000000
3125, 129.720000000, 38.000000000, 0.000000000
3126, 131.100000000, 38.000000000, 0.000000000
3127, 132.480000000, 38.000000000, 0.000000000
3128, 133.860000000, 38.000000000, 0.000000000
3129, 135.240000000, 38.000000000, 0.000000000
3130, 136.620000000, 38.000000000, 0.000000000
3131, 138.000000000, 38.000000000, 0.000000000
3132, 0.000000000, 0.000000000, 1.000000000
3133, 1.380000000, 0.000000000, 1.000000000
3134, 2.760000000, 0.000000000, 1.000000000
3135, 4.140000000, 0.000000000, 1.000000000
3136, 5.520000000, 0.000000000, 1.000000000
3137, 6.900000000, 0.000000000, 1.000000000
3138, 8.280000000, 0.000000000, 1.000000000
3139, 9.660000000, 0.000000000, 1.000000000
3140, 11.040000000, 0.000000000, 1.000000000
3141, 12.420000000, 0.000000000, 1.000000000
3142, 13.800000000, 0.000000000, 1.000000000
3143, 15.180000000, 0.000000000, 1.000000000
3144, 16.560000000, 0.000000000, 1.000000000
3145, 17.940000000, 0.000000000, 1.000000000
3146, 19.320000000, 0.000000000, 1.000000000
3147, 20.700000000, 0.000000000, 1.000000000
3148, 22.080000000, 0.000000000, 1.000000000
3149, 23.460000000, 0.000000000, 1.000000000
3150, 24.840000000, 0.000000000, 1.000000000
3151, 26.220000000, 0.000000000, 1.000000000
3152, 27.600000000, 0.000000000, 1.000000000
3153, 28.980000000, 0.000000000, 1.000000000
3154, 30.360000000, 0.000000000, 1.000000000
3155, 31.740000000, 0.000000000, 1.000000000
3156, 33.120000000, 0.000000000, 1.000000000
3157, 34.500000000, 0.000000000, 1.000000000
3158, 35.880000000, 0.000000000, 1.000000000
3159, 37.260000000, 0.000000000, 1.000000000
3160, 38.640000000, 0.000000000, 1.000000000
3161, 40.020000000, 0.000000000, 1.000000000
3162, 41.400000000, 0.000000000, 1.000000000
3163, 42.780000000, 0.000000000, 1.000000000
3164, 44.160000000, 0.000000000, 1.000000000
3165, 45.540000000, 0.000000000, 1.000000000
3166, 46.920000000, 0.000000000, 1.000000000
3167, 48.300000000, 0.000000000, 1.000000000
3168, 49.680000000, 0.000000000, 1.000000000
3169, 51.060000000, 0.000000000, 1.000000000
3170, 52.440000000, 0.000000000, 1.000000000
3171, 53.820000000, 0.000000000, 1.000000000
3172, 55.200000000, 0.000000000, 1.000000000
3173, 56.580000000, 0.000000000, 1.000000000
3174, 57.960000000, 0.000000000, 1.000000000
3175, 59.340000000, 0.000000000, 1.000000000
3176, 60.720000000, 0.000000000, 1.000000000
3177, 62.100000000, 0.000000000, 1.000000000
3178, 63.480000000, 0.000000000, 1.000000000
3179, 64.860000000, 0.000000000, 1.000000000
3180, 66.240000000, 0.000000000, 1.000000000
3181, 67.620000000, 0.000000000, 1.000000000
3182, 69.000000000, 0.000000000, 1.000000000
3183, 70.380000000, 0.000000000, 1.000000000
3184, 71.760000000, 0.000000000, 1.000000000
3185, 73.140000000, 0.000000000, 1.000000000
3186, 74.520000000, 0.000000000, 1.000000000
3187, 75.900000000, 0.000000000, 1.000000000
3188, 77.280000000, 0.000000000, 1.000000000
3189, 78.660000000, 0.000000000, 1.000000000
3190, 80.040000000, 0.000000000, 1.000000000
3191, 81.420000000, 0.000000000, 1.000000000
3192, 82.800000000, 0.000000000, 1.000000000
3193, 84.180000000, 0.000000000, 1.000000000
3194, 85.560000000, 0.000000000, 1.000000000
3195, 86.940000000, 0.000000000, 1.000000000
3196, 88.320000000, 0.000000000, 1.000000000
3197, 89.700000000, 0.000000000, 1.000000000
3198, 91.080000000, 0.000000000, 1.000000000
3199, 92.460000000, 0.000000000, 1.000000000
3200, 93.840000000, 0.000000000, 1.000000000
3201, 95.220000000, 0.000000000, 1.000000000
3202, 96.600000000, 0.000000000, 1.000000000
3203, 97.980000000, 0.000000000, 1.000000000
3204, 99.360000000, 0.000000000, 1.000000000
3205, 100.740000000, 0.000000000, 1.000000000
3206, 102.120000000, 0.000000000, 1.000000000
3207, 103.500000000, 0.000000000, 1.000000000
3208, 104.880000000, 0.000000000, 1.000000000
3209, 106.260000000, 0.000000000, 1.000000000
3210, 107.640000000, 0.000000000, 1.000000000
3211, 109.020000000, 0.000000000, 1.000000000
3212, 110.400000000, 0.000000000, 1.000000000
3213, 111.780000000, 0.000000000, 1.000000000
3214, 113.160000000, 0.000000000, 1.000000000
3215, 114.540000000, 0.000000000, 1.000000000
3216, 115.920000000, 0.000000000, 1.000000000
3217, 117.300000000, 0.000000000, 1.000000000
3218, 118.680000000, 0.000000000, 1.000000000
3219, 120.060000000, 0.000000000, 1.000000000
3220, 121.440000000, 0.000000000, 1.000000000
3221, 122.820000000, 0.000000000, 1.000000000
3222, 124.200000000, 0.000000000, 1.000000000
3223, 125.580000000, 0.000000000, 1.000000000
3224, 126.960000000, 0.000000000, 1.000000000
3225, 128.340000000, 0.000000000, 1.000000000
3226, 129.720000000, 0.000000000, 1.000000000
3227, 131.100000000, 0.000000000, 1.000000000
3228, 132.480000000, 0.000000000, 1.000000000
3229, 133.860000000, 0.000000000, 1.000000000
3230, 135.240000000, 0.000000000, 1.000000000
3231, 136.620000000, 0.000000000, 1.000000000
3232, 138.000000000, 0.000000000, 1.000000000
3233, 0.000000000, 1.266666667, 1.000000000
3234, 1.380000000, 1.266666667, 1.000000000
3235, 2.760000000, 1.266666667, 1.000000000
3236, 4.140000000, 1.266666667, 1.000000000
3237, 5.520000000, 1.266666667, 1.000000000
3238, 6.900000000, 1.266666667, 1.000000000
3239, 8.280000000, 1.266666667, 1.000000000
3240, 9.660000000, 1.266666667, 1.000000000
3241, 11.040000000, 1.266666667, 1.000000000
3242, 12.420000000, 1.266666667, 1.000000000
3243, 13.800000000, 1.266666667, 1.000000000
3244, 15.180000000, 1.266666667, 1.000000000
3245, 16.560000000, 1.266666667, 1.000000000
3246, 17.940000000, 1.266666667, 1.000000000
3247, 19.320000000, 1.266666667, 1.000000000
3248, 20.700000000, 1.266666667, 1.000000000
3249, 22.080000000, 1.266666667, 1.000000000
3250, 23.460000000, 1.266666667, 1.000000000
3251, 24.840000000, 1.266666667, 1.000000000
3252, 26.220000000, 1.266666667, 1.000000000
3253, 27.600000000, 1.266666667, 1.000000000
3254, 28.980000000, 1.266666667, 1.000000000
3255, 30.360000000, 1.266666667, 1.000000000
3256, 31.740000000, 1.266666667, 1.000000000
3257, 33.120000000, 1.266666667, 1.000000000
3258, 34.500000000, 1.266666667, 1.000000000
3259, 35.880000000, 1.266666667, 1.000000000
3260, 37.260000000, 1.266666667, 1.000000000
3261, 38.640000000, 1.266666667, 1.000000000
3262, 40.020000000, 1.266666667, 1.000000000
3263, 41.400000000, 1.266666667, 1.000000000
3264, 42.780000000, 1.266666667, 1.000000000
3265, 44.160000000, 1.266666667, 1.000000000
3266, 45.540000000, 1.266666667, 1.000000000
3267, 46.920000000, 1.266666667, 1.000000000
3268, 48.300000000, 1.266666667, 1.000000000
3269, 49.680000000, 1.266666667, 1.000000000
3270, 51.060000000, 1.266666667, 1.000000000
3271, 52.440000000, 1.266666667, 1.000000000
3272, 53.820000000, 1.266666667, 1.000000000
3273, 55.200000000, 1.266666667, 1.000000000
3274, 56.580000000, 1.266666667, 1.000000000
3275, 57.960000000, 1.266666667, 1.000000000
3276, 59.340000000, 1.266666667, 1.000000000
3277, 60.720000000, 1.266666667, 1.000000000
3278, 62.100000000, 1.266666667, 1.000000000
3279, 63.480000000, 1.266666667, 1.000000000
3280, 64.860000000, 1.266666667, 1.000000000
3281, 66.240000000, 1.266666667, 1.000000000
3282, 67.620000000, 1.266666667, 1.000000000
3283, 69.000000000, 1.266666667, 1.000000000
3284, 70.380000000, 1.266666667, 1.000000000
3285, 71.760000000, 1.266666667, 1.000000000
3286, 73.140000000, 1.266666667, 1.000000000
3287, 74.520000000, 1.266666667, 1.000000000
3288, 75.900000000, 1.266666667, 1.000000000
3289, 77.280000000, 1.266666667, 1.000000000
3290, 78.660000000, 1.266666667, 1.000000000
3291, 80.040000000, 1.266666667, 1.000000000
3292, 81.420000000, 1.266666667, 1.000000000
3293, 82.800000000, 1.266666667, 1.000000000
3294, 84.180000000, 1.266666667, 1.000000000
3295, 85.560000000, 1.266666667, 1.000000000
3296, 86.940000000, 1.266666667, 1.000000000
3297, 88.320000000, 1.266666667, 1.000000000
3298, 89.700000000, 1.266666667, 1.000000000
3299, 91.080000000, 1.266666667, 1.000000000
3300, 92.460000000, 1.266666667, 1.000000000
3301, 93.840000000, 1.266666667, 1.000000000
3302, 95.220000000, 1.266666667, 1.000000000
3303, 96.600000000, 1.266666667, 1.000000000
3304, 97.980000000, 1.266666667, 1.000000000
3305, 99.360000000, 1.266666667, 1.000000000
3306, 100.740000000, 1.266666667, 1.000000000
3307, 102.120000000, 1.266666667, 1.000000000
3308, 103.500000000, 1.266666667, 1.000000000
3309, 104.880000000, 1.266666667, 1.000000000
3310, 106.260000000, 1.266666667, 1.000000000
3311, 107.640000000, 1.266666667, 1.000000000
3312, 109.020000000, 1.266666667, 1.000000000
3313, 110.400000000, 1.266666667, 1.000000000
3314, 111.780000000, 1.266666667, 1.000000000
3315, 113.160000000, 1.266666667, 1.000000000
3316, 114.540000000, 1.266666667, 1.000000000
3317, 115.920000000, 1.266666667, 1.000000000
3318, 117.300000000, 1.266666667, 1.000000000
3319, 118.680000000, 1.266666667, 1.000000000
3320, 120.060000000, 1.266666667, 1.000000000
3321, 121.440000000, 1.266666667, 1.000000000
3322, 122.820000000, 1.266666667, 1.000000000
3323, 124.200000000, 1.266666667, 1.000000000
3324, 125.580000000, 1.266666667, 1.000000000
3325, 126.960000000, 1.266666667, 1.000000000
3326, 128.340000000, 1.266666667, 1.000000000
3327, 129.720000000, 1.266666667, 1.000000000
3328, 131.100000000, 1.266666667, 1.000000000
3329, 132.480000000, 1.266666667, 1.000000000
3330, 133.860000000, 1.266666667, 1.000000000
3331, 135.240000000, 1.266666667, 1.000000000
3332, 136.620000000, 1.266666667, 1.000000000
3333, 138.000000000, 1.266666667, 1.000000000
3334, 0.000000000, 2.533333333, 1.000000000
3335, 1.380000000, 2.533333333, 1.000000000
3336, 2.760000000, 2.533333333, 1.000000000
3337, 4.140000000, 2.533333333, 1.000000000
3338, 5.520000000, 2.533333333, 1.000000000
3339, 6.900000000, 2.533333333, 1.000000000
3340, 8.280000000, 2.533333333, 1.000000000
3341, 9.660000000, 2.533333333, 1.000000000
3342, 11.040000000, 2.533333333, 1.000000000
3343, 12.420000000, 2.533333333, 1.000000000
3344, 13.800000000, 2.533333333, 1.000000000
3345, 15.180000000, 2.533333333, 1.000000000
3346, 16.560000000, 2.533333333, 1.000000000
3347, 17.940000000, 2.533333333, 1.000000000
3348, 19.320000000, 2.533333333, 1.000000000
3349, 20.700000000, 2.533333333, 1.000000000
3350, 22.080000000, 2.533333333, 1.000000000
3351, 23.460000000, 2.533333333, 1.000000000
3352, 24.840000000, 2.533333333, 1.000000000
3353, 26.220000000, 2.533333333, 1.000000000
3354, 27.600000000, 2.533333333, 1.000000000
3355, 28.980000000, 2.533333333, 1.000000000
3356, 30.360000000, 2.533333333, 1.000000000
3357, 31.740000000, 2.533333333, 1.000000000
3358, 33.120000000, 2.533333333, 1.000000000
3359, 34.500000000, 2.533333333, 1.000000000
3360, 35.880000000, 2.533333333, 1.000000000
3361, 37.260000000, 2.533333333, 1.000000000
3362, 38.640000000, 2.533333333, 1.000000000
3363, 40.020000000, 2.533333333, 1.000000000
3364, 41.400000000, 2.533333333, 1.000000000
3365, 42.780000000, 2.533333333, 1.000000000
3366, 44.160000000, 2.533333333, 1.000000000
3367, 45.540000000, 2.533333333, 1.000000000
3368, 46.920000000, 2.533333333, 1.000000000
3369, 48.300000000, 2.533333333, 1.000000000
3370, 49.680000000, 2.533333333, 1.000000000
3371, 51.060000000, 2.533333333, 1.000000000
3372, 52.440000000, 2.533333333, 1.000000000
3373, 53.820000000, 2.533333333, 1.000000000
3374, 55.200000000, 2.533333333, 1.000000000
3375, 56.580000000, 2.533333333, 1.000000000
3376, 57.960000000, 2.533333333, 1.000000000
3377, 59.340000000, 2.533333333, 1.000000000
3378, 60.720000000, 2.533333333, 1.000000000
3379, 62.100000000, 2.533333333, 1.000000000
3380, 63.480000000, 2.533333333, 1.000000000
3381, 64.860000000, 2.533333333, 1.000000000
3382, 66.240000000, 2.533333333, 1.000000000
3383, 67.620000000, 2.533333333, 1.000000000
3384, 69.000000000, 2.533333333, 1.000000000
3385, 70.380000000, 2.533333333, 1.000000000
3386, 71.760000000, 2.533333333, 1.000000000
3387, 73.140000000, 2.533333333, 1.000000000
3388, 74.520000000, 2.533333333, 1.000000000
3389, 75.900000000, 2.533333333, 1.000000000
3390, 77.280000000, 2.533333333, 1.000000000
3391, 78.660000000, 2.533333333, 1.000000000
3392, 80.040000000, 2.533333333, 1.000000000
3393, 81.420000000, 2.533333333, 1.000000000
3394, 82.800000000, 2.533333333, 1.000000000
3395, 84.180000000, 2.533333333, 1.000000000
3396, 85.560000000, 2.533333333, 1.000000000
3397, 86.940000000, 2.533333333, 1.000000000
3398, 88.320000000, 2.533333333, 1.000000000
3399, 89.700000000, 2.533333333, 1.000000000
3400, 91.080000000, 2.533333333, 1.000000000
3401, 92.460000000, 2.533333333, 1.000000000
3402, 93.840000000, 2.533333333, 1.000000000
3403, 95.220000000, 2.533333333, 1.000000000
3404, 96.600000000, 2.533333333, 1.000000000
3405, 97.980000000, 2.533333333, 1.000000000
3406, 99.360000000, 2.533333333, 1.000000000
3407, 100.740000000, 2.533333333, 1.000000000
3408, 102.120000000, 2.533333333, 1.000000000
3409, 103.500000000, 2.533333333, 1.000000000
3410, 104.880000000, 2.533333333, 1.000000000
3411, 106.260000000, 2.533333333, 1.000000000
3412, 107.640000000, 2.533333333, 1.000000000
3413, 109.020000000, 2.533333333, 1.000000000
3414, 110.400000000, 2.533333333, 1.000000000
3415, 111.780000000, 2.533333333, 1.000000000
3416, 113.160000000, 2.533333333, 1.000000000
3417, 114.540000000, 2.533333333, 1.000000000
3418, 115.920000000, 2.533333333, 1.000000000
3419, 117.300000000, 2.533333333, 1.000000000
3420, 118.680000000, 2.533333333, 1.000000000
3421, 120.060000000, 2.533333333, 1.000000000
3422, 121.440000000, 2.533333333, 1.000000000
3423, 122.820000000, 2.533333333, 1.000000000
3424, 124.200000000, 2.533333333, 1.000000000
3425, 125.580000000, 2.533333333, 1.000000000
3426, 126.960000000, 2.533333333, 1.000000000
3427, 128.340000000, 2.533333333, 1.000000000
3428, 129.720000000, 2.533333333, 1.000000000
3429, 131.100000000, 2.533333333, 1.000000000
3430, 132.480000000, 2.533333333, 1.000000000
3431, 133.860000000, 2.533333333, 1.000000000
3432, 135.240000000, 2.533333333, 1.000000000
3433, 136.620000000, 2.533333333, 1.000000000
3434, 138.000000000, 2.533333333, 1.000000000
3435, 0.000000000, 3.800000000, 1.000000000
3436, 1.380000000, 3.800000000, 1.000000000
3437, 2.760000000, 3.800000000, 1.000000000
3438, 4.140000000, 3.800000000, 1.000000000
3439, 5.520000000, 3.800000000, 1.000000000
3440, 6.900000000, 3.800000000, 1.000000000
3441, 8.280000000, 3.800000000, 1.000000000
3442, 9.660000000, 3.800000000, 1.000000000
3443, 11.040000000, 3.800000000, 1.000000000
3444, 12.420000000, 3.800000000, 1.000000000
3445, 13.800000000, 3.800000000, 1.000000000
3446, 15.180000000, 3.800000000, 1.000000000
3447, 16.560000000, 3.800000000, 1.000000000
3448, 17.940000000, 3.800000000, 1.000000000
3449, 19.320000000, 3.800000000, 1.000000000
3450, 20.700000000, 3.800000000, 1.000000000
3451, 22.080000000, 3.800000000, 1.000000000
3452, 23.460000000, 3.800000000, 1.000000000
3453, 24.840000000, 3.800000000, 1.000000000
3454, 26.220000000, 3.800000000, 1.000000000
3455, 27.600000000, 3.800000000, 1.000000000
3456, 28.980000000, 3.800000000, 1.000000000
3457, 30.360000000, 3.800000000, 1.000000000
3458, 31.740000000, 3.800000000, 1.000000000
3459, 33.120000000, 3.800000000, 1.000000000
3460, 34.500000000, 3.800000000, 1.000000000
3461, 35.880000000, 3.800000000, 1.000000000
3462, 37.260000000, 3.800000000, 1.000000000
3463, 38.640000000, 3.800000000, 1.000000000
3464, 40.020000000, 3.800000000, 1.000000000
3465, 41.400000000, 3.800000000, 1.000000000
3466, 42.780000000, 3.800000000, 1.000000000
3467, 44.160000000, 3.800000000, 1.000000000
3468, 45.540000000, 3.800000000, 1.000000000
3469, 46.920000000, 3.800000000, 1.000000000
3470, 48.300000000, 3.800000000, 1.000000000
3471, 49.680000000, 3.800000000, 1.000000000
3472, 51.060000000, 3.800000000, 1.000000000
3473, 52.440000000, 3.800000000, 1.000000000
3474, 53.820000000, 3.800000000, 1.000000000
3475, 55.200000000, 3.800000000, 1.000000000
3476, 56.580000000, 3.800000000, 1.000000000
3477, 57.960000000, 3.800000000, 1.000000000
3478, 59.340000000, 3.800000000, 1.000000000
3479, 60.720000000, 3.800000000, 1.000000000
3480, 62.100000000, 3.800000000, 1.000000000
3481, 63.480000000, 3.800000000, 1.000000000
3482, 64.860000000, 3.800000000, 1.000000000
3483, 66.240000000, 3.800000000, 1.000000000
3484, 67.620000000, 3.800000000, 1.000000000
3485, 69.000000000, 3.800000000, 1.000000000
3486, 70.380000000, 3.800000000, 1.000000000
3487, 71.760000000, 3.800000000, 1.000000000
3488, 73.140000000, 3.800000000, 1.000000000
3489, 74.520000000, 3.800000000, 1.000000000
3490, 75.900000000, 3.800000000, 1.000000000
3491, 77.280000000, 3.800000000, 1.000000000
3492, 78.660000000, 3.800000000, 1.000000000
3493, 80.040000000, 3.800000000, 1.000000000
3494, 81.420000000, 3.800000000, 1.000000000
3495, 82.800000000, 3.800000000, 1.000000000
3496, 84.180000000, 3.800000000, 1.000000000
3497, 85.560000000, 3.800000000, 1.000000000
3498, 86.940000000, 3.800000000, 1.000000000
3499, 88.320000000, 3.800000000, 1.000000000
3500, 89.700000000, 3.800000000, 1.000000000
3501, 91.080000000, 3.800000000, 1.000000000
3502, 92.460000000, 3.800000000, 1.000000000
3503, 93.840000000, 3.800000000, 1.000000000
3504, 95.220000000, 3.800000000, 1.000000000
3505, 96.600000000, 3.800000000, 1.000000000
3506, 97.980000000, 3.800000000, 1.000000000
3507, 99.360000000, 3.800000000, 1.000000000
3508, 100.740000000, 3.800000000, 1.000000000
3509, 102.120000000, 3.800000000, 1.000000000
3510, 103.500000000, 3.800000000, 1.000000000
3511, 104.880000000, 3.800000000, 1.000000000
3512, 106.260000000, 3.800000000, 1.000000000
3513, 107.640000000, 3.800000000, 1.000000000
3514, 109.020000000, 3.800000000, 1.000000000
3515, 110.400000000, 3.800000000, 1.000000000
3516, 111.780000000, 3.800000000, 1.000000000
3517, 113.160000000, 3.800000000, 1.000000000
3518, 114.540000000, 3.800000000, 1.000000000
3519, 115.920000000, 3.800000000, 1.000000000
3520, 117.300000000, 3.800000000, 1.000000000
3521, 118.680000000, 3.800000000, 1.000000000
3522, 120.060000000, 3.800000000, 1.000000000
3523, 121.440000000, 3.800000000, 1.000000000
3524, 122.820000000, 3.800000000, 1.000000000
3525, 124.200000000, 3.800000000, 1.000000000
3526, 125.580000000, 3.800000000, 1.000000000
3527, 126.960000000, 3.800000000, 1.000000000
3528, 128.340000000, 3.800000000, 1.000000000
3529, 129.720000000, 3.800000000, 1.000000000
3530, 131.100000000, 3.800000000, 1.000000000
3531, 132.480000000, 3.800000000, 1.000000000
3532, 133.860000000, 3.800000000, 1.000000000
3533, 135.240000000, 3.800000000, 1.000000000
3534, 136.620000000, 3.800000000, 1.000000000
3535, 138.000000000, 3.800000000, 1.000000000
3536, 0.000000000, 5.066666667, 1.000000000
3537, 1.380000000, 5.066666667, 1.000000000
3538, 2.760000000, 5.066666667, 1.000000000
3539, 4.140000000, 5.066666667, 1.000000000
3540, 5.520000000, 5.066666667, 1.000000000
3541, 6.900000000, 5.066666667, 1.000000000
3542, 8.280000000, 5.066666667, 1.000000000
3543, 9.660000000, 5.066666667, 1.000000000
3544, 11.040000000, 5.066666667, 1.000000000
3545, 12.420000000, 5.066666667, 1.000000000
3546, 13.800000000, 5.066666667, 1.000000000
3547, 15.180000000, 5.066666667, 1.000000000
3548, 16.560000000, 5.066666667, 1.000000000
3549, 17.940000000, 5.066666667, 1.000000000
3550, 19.320000000, 5.066666667, 1.000000000
3551, 20.700000000, 5.066666667, 1.000000000
3552, 22.080000000, 5.066666667, 1.000000000
3553, 23.460000000, 5.066666667, 1.000000000
3554, 24.840000000, 5.066666667, 1.000000000
3555, 26.220000000, 5.066666667, 1.000000000
3556, 27.600000000, 5.066666667, 1.000000000
3557, 28.980000000, 5.066666667, 1.000000000
3558, 30.360000000, 5.066666667, 1.000000000
3559, 31.740000000, 5.066666667, 1.000000000
3560, 33.120000000, 5.066666667, 1.000000000
3561, 34.500000000, 5.066666667, 1.000000000
3562, 35.880000000, 5.066666667, 1.000000000
3563, 37.260000000, 5.066666667, 1.000000000
3564, 38.640000000, 5.066666667, 1.000000000
3565, 40.020000000, 5.066666667, 1.000000000
3566, 41.400000000, 5.066666667, 1.000000000
3567, 42.780000000, 5.066666667, 1.000000000
3568, 44.160000000, 5.066666667, 1.000000000
3569, 45.540000000, 5.066666667, 1.000000000
3570, 46.920000000, 5.066666667, 1.000000000
3571, 48.300000000, 5.066666667, 1.000000000
3572, 49.680000000, 5.066666667, 1.000000000
3573, 51.060000000, 5.066666667, 1.000000000
3574, 52.440000000, 5.066666667, 1.000000000
3575, 53.820000000, 5.066666667, 1.000000000
3576, 55.200000000, 5.066666667, 1.000000000
3577, 56.580000000, 5.066666667, 1.000000000
3578, 57.960000000, 5.066666667, 1.000000000
3579, 59.340000000, 5.066666667, 1.000000000
3580, 60.720000000, 5.066666667, 1.000000000
3581, 62.100000000, 5.066666667, 1.000000000
3582, 63.480000000, 5.066666667, 1.000000000
3583, 64.860000000, 5.066666667, 1.000000000
3584, 66.240000000, 5.066666667, 1.000000000
3585, 67.620000000, 5.066666667, 1.000000000
3586, 69.000000000, 5.066666667, 1.000000000
3587, 70.380000000, 5.066666667, 1.000000000
3588, 71.760000000, 5.066666667, 1.000000000
3589, 73.140000000, 5.066666667, 1.000000000
3590, 74.520000000, 5.066666667, 1.000000000
3591, 75.900000000, 5.066666667, 1.000000000
3592, 77.280000000, 5.066666667, 1.000000000
3593, 78.660000000, 5.066666667, 1.000000000
3594, 80.040000000, 5.066666667, 1.000000000
3595, 81.420000000, 5.066666667, 1.000000000
3596, 82.800000000, 5.066666667, 1.000000000
3597, 84.180000000, 5.066666667, 1.000000000
3598, 85.560000000, 5.066666667, 1.000000000
3599, 86.940000000, 5.066666667, 1.000000000
3600, 88.320000000, 5.066666667, 1.000000000
3601, 89.700000000, 5.066666667, 1.000000000
3602, 91.080000000, 5.066666667, 1.000000000
3603, 92.460000000, 5.066666667, 1.000000000
3604, 93.840000000, 5.066666667, 1.000000000
3605, 95.220000000, 5.066666667, 1.000000000
3606, 96.600000000, 5.066666667, 1.000000000
3607, 97.980000000, 5.066666667, 1.000000000
3608, 99.360000000, 5.066666667, 1.000000000
3609, 100.740000000, 5.066666667, 1.000000000
3610, 102.120000000, 5.066666667, 1.000000000
3611, 103.500000000, 5.066666667, 1.000000000
3612, 104.880000000, 5.066666667, 1.000000000
3613, 106.260000000, 5.066666667, 1.000000000
3614, 107.640000000, 5.066666667, 1.000000000
3615, 109.020000000, 5.066666667, 1.000000000
3616, 110.400000000, 5.066666667, 1.000000000
3617, 111.780000000, 5.066666667, 1.000000000
3618, 113.160000000, 5.066666667, 1.000000000
3619, 114.540000000, 5.066666667, 1.000000000
3620, 115.920000000, 5.066666667, 1.000000000
3621, 117.300000000, 5.066666667, 1.000000000
3622, 118.680000000, 5.066666667, 1.000000000
3623, 120.060000000, 5.066666667, 1.000000000
3624, 121.440000000, 5.066666667, 1.000000000
3625, 122.820000000, 5.066666667, 1.000000000
3626, 124.200000000, 5.066666667, 1.000000000
3627, 125.580000000, 5.066666667, 1.000000000
3628, 126.960000000, 5.066666667, 1.000000000
3629, 128.340000000, 5.066666667, 1.000000000
3630, 129.720000000, 5.066666667, 1.000000000
3631, 131.100000000, 5.066666667, 1.000000000
3632, 132.480000000, 5.066666667, 1.000000000
3633, 133.860000000, 5.066666667, 1.000000000
3634, 135.240000000, 5.066666667, 1.000000000
3635, 136.620000000, 5.066666667, 1.000000000
3636, 138.000000000, 5.066666667, 1.000000000
3637, 0.000000000, 6.333333333, 1.000000000
3638, 1.380000000, 6.333333333, 1.000000000
3639, 2.760000000, 6.333333333, 1.000000000
3640, 4.140000000, 6.333333333, 1.000000000
3641, 5.520000000, 6.333333333, 1.000000000
3642, 6.900000000, 6.333333333, 1.000000000
3643, 8.280000000, 6.333333333, 1.000000000
3644, 9.660000000, 6.333333333, 1.000000000
3645, 11.040000000, 6.333333333, 1.000000000
3646, 12.420000000, 6.333333333, 1.000000000
3647, 13.800000000, 6.333333333, 1.000000000
3648, 15.180000000, 6.333333333, 1.000000000
3649, 16.560000000, 6.333333333, 1.000000000
3650, 17.940000000, 6.333333333, 1.000000000
3651, 19.320000000, 6.333333333, 1.000000000
3652, 20.700000000, 6.333333333, 1.000000000
3653, 22.080000000, 6.333333333, 1.000000000
3654, 23.460000000, 6.333333333, 1.000000000
3655, 24.840000000, 6.333333333, 1.000000000
3656, 26.220000000, 6.333333333, 1.000000000
3657, 27.600000000, 6.333333333, 1.000000000
3658, 28.980000000, 6.333333333, 1.000000000
3659, 30.360000000, 6.333333333, 1.000000000
3660, 31.740000000, 6.333333333, 1.000000000
3661, 33.120000000, 6.333333333, 1.000000000
3662, 34.500000000, 6.333333333, 1.000000000
3663, 35.880000000, 6.333333333, 1.000000000
3664, 37.260000000, 6.333333333, 1.000000000
3665, 38.640000000, 6.333333333, 1.000000000
3666, 40.020000000, 6.333333333, 1.000000000
3667, 41.400000000, 6.333333333, 1.000000000
3668, 42.780000000, 6.333333333, 1.000000000
3669, 44.160000000, 6.333333333, 1.000000000
3670, 45.540000000, 6.333333333, 1.000000000
3671, 46.920000000, 6.333333333, 1.000000000
3672, 48.300000000, 6.333333333, 1.000000000
3673, 49.680000000, 6.333333333, 1.000000000
3674, 51.060000000, 6.333333333, 1.000000000
3675, 52.440000000, 6.333333333, 1.000000000
3676, 53.820000000, 6.333333333, 1.000000000
3677, 55.200000000, 6.333333333, 1.000000000
3678, 56.580000000, 6.333333333, 1.000000000
3679, 57.960000000, 6.333333333, 1.000000000
3680, 59.340000000, 6.333333333, 1.000000000
3681, 60.720000000, 6.333333333, 1.000000000
3682, 62.100000000, 6.333333333, 1.000000000
3683, 63.480000000, 6.333333333, 1.000000000
3684, 64.860000000, 6.333333333, 1.000000000
3685, 66.240000000, 6.333333333, 1.000000000
3686, 67.620000000, 6.333333333, 1.000000000
3687, 69.000000000, 6.333333333, 1.000000000
3688, 70.380000000, 6.333333333, 1.000000000
3689, 71.760000000, 6.333333333, 1.000000000
3690, 73.140000000, 6.333333333, 1.000000000
3691, 74.520000000, 6.333333333, 1.000000000
3692, 75.900000000, 6.333333333, 1.000000000
3693, 77.280000000, 6.333333333, 1.000000000
3694, 78.660000000, 6.333333333, 1.000000000
3695, 80.040000000, 6.333333333, 1.000000000
3696, 81.420000000, 6.333333333, 1.000000000
3697, 82.800000000, 6.333333333, 1.000000000
3698, 84.180000000, 6.333333333, 1.000000000
3699, 85.560000000, 6.333333333, 1.000000000
3700, 86.940000000, 6.333333333, 1.000000000
3701, 88.320000000, 6.333333333, 1.000000000
3702, 89.700000000, 6.333333333, 1.000000000
3703, 91.080000000, 6.333333333, 1.000000000
3704, 92.460000000, 6.333333333, 1.000000000
3705, 93.840000000, 6.333333333, 1.000000000
3706, 95.220000000, 6.333333333, 1.000000000
3707, 96.600000000, 6.333333333, 1.000000000
3708, 97.980000000, 6.333333333, 1.000000000
3709, 99.360000000, 6.333333333, 1.000000000
3710, 100.740000000, 6.333333333, 1.000000000
3711, 102.120000000, 6.333333333, 1.000000000
3712, 103.500000000, 6.333333333, 1.000000000
3713, 104.880000000, 6.333333333, 1.000000000
3714, 106.260000000, 6.333333333, 1.000000000
3715, 107.640000000, 6.333333333, 1.000000000
3716, 109.020000000, 6.333333333, 1.000000000
3717, 110.400000000, 6.333333333, 1.000000000
3718, 111.780000000, 6.333333333, 1.000000000
3719, 113.160000000, 6.333333333, 1.000000000
3720, 114.540000000, 6.333333333, 1.000000000
3721, 115.920000000, 6.333333333, 1.000000000
3722, 117.300000000, 6.333333333, 1.000000000
3723, 118.680000000, 6.333333333, 1.000000000
3724, 120.060000000, 6.333333333, 1.000000000
3725, 121.440000000, 6.333333333, 1.000000000
3726, 122.820000000, 6.333333333, 1.000000000
3727, 124.200000000, 6.333333333, 1.000000000
3728, 125.580000000, 6.333333333, 1.000000000
3729, 126.960000000, 6.333333333, 1.000000000
3730, 128.340000000, 6.333333333, 1.000000000
3731, 129.720000000, 6.333333333, 1.000000000
3732, 131.100000000, 6.333333333, 1.000000000
3733, 132.480000000, 6.333333333, 1.000000000
3734, 133.860000000, 6.333333333, 1.000000000
3735, 135.240000000, 6.333333333, 1.000000000
3736, 136.620000000, 6.333333333, 1.000000000
3737, 138.000000000, 6.333333333, 1.000000000
3738, 0.000000000, 7.600000000, 1.000000000
3739, 1.380000000, 7.600000000, 1.000000000
3740, 2.760000000, 7.600000000, 1.000000000
3741, 4.140000000, 7.600000000, 1.000000000
3742, 5.520000000, 7.600000000, 1.000000000
3743, 6.900000000, 7.600000000, 1.000000000
3744, 8.280000000, 7.600000000, 1.000000000
3745, 9.660000000, 7.600000000, 1.000000000
3746, 11.040000000, 7.600000000, 1.000000000
3747, 12.420000000, 7.600000000, 1.000000000
3748, 13.800000000, 7.600000000, 1.000000000
3749, 15.180000000, 7.600000000, 1.000000000
3750, 16.560000000, 7.600000000, 1.000000000
3751, 17.940000000, 7.600000000, 1.000000000
3752, 19.320000000, 7.600000000, 1.000000000
3753, 20.700000000, 7.600000000, 1.000000000
3754, 22.080000000, 7.600000000, 1.000000000
3755, 23.460000000, 7.600000000, 1.000000000
3756, 24.840000000, 7.600000000, 1.000000000
3757, 26.220000000, 7.600000000, 1.000000000
3758, 27.600000000, 7.600000000, 1.000000000
3759, 28.980000000, 7.600000000, 1.000000000
3760, 30.360000000, 7.600000000, 1.000000000
3761, 31.740000000, 7.600000000, 1.000000000
3762, 33.120000000, 7.600000000, 1.000000000
3763, 34.500000000, 7.600000000, 1.000000000
3764, 35.880000000, 7.600000000, 1.000000000
3765, 37.260000000, 7.600000000, 1.000000000
3766, 38.640000000, 7.600000000, 1.000000000
3767, 40.020000000, 7.600000000, 1.000000000
3768, 41.400000000, 7.600000000, 1.000000000
3769, 42.780000000, 7.600000000, 1.000000000
3770, 44.160000000, 7.600000000, 1.000000000
3771, 45.540000000, 7.600000000, 1.000000000
3772, 46.920000000, 7.600000000, 1.000000000
3773, 48.300000000, 7.600000000, 1.000000000
3774, 49.680000000, 7.600000000, 1.000000000
3775, 51.060000000, 7.600000000, 1.000000000
3776, 52.440000000, 7.600000000, 1.000000000
3777, 53.820000000, 7.600000000, 1.000000000
3778, 55.200000000, 7.600000000, 1.000000000
3779, 56.580000000, 7.600000000, 1.000000000
3780, 57.960000000, 7.600000000, 1.000000000
3781, 59.340000000, 7.600000000, 1.000000000
3782, 60.720000000, 7.600000000, 1.000000000
3783, 62.100000000, 7.600000000, 1.000000000
3784, 63.480000000, 7.600000000, 1.000000000
3785, 64.860000000, 7.600000000, 1.000000000
3786, 66.240000000, 7.600000000, 1.000000000
3787, 67.620000000, 7.600000000, 1.000000000
3788, 69.000000000, 7.600000000, 1.000000000
3789, 70.380000000, 7.600000000, 1.000000000
3790, 71.760000000, 7.600000000, 1.000000000
3791, 73.140000000, 7.600000000, 1.000000000
3792, 74.520000000, 7.600000000, 1.000000000
3793, 75.900000000, 7.600000000, 1.000000000
3794, 77.280000000, 7.600000000, 1.000000000
3795, 78.660000000, 7.600000000, 1.000000000
3796, 80.040000000, 7.600000000, 1.000000000
3797, 81.420000000, 7.600000000, 1.000000000
3798, 82.800000000, 7.600000000, 1.000000000
3799, 84.180000000, 7.600000000, 1.000000000
3800, 85.560000000, 7.600000000, 1.000000000
3801, 86.940000000, 7.600000000, 1.000000000
3802, 88.320000000, 7.600000000, 1.000000000
3803, 89.700000000, 7.600000000, 1.000000000
3804, 91.080000000, 7.600000000, 1.000000000
3805, 92.460000000, 7.600000000, 1.000000000
3806, 93.840000000, 7.600000000, 1.000000000
3807, 95.220000000, 7.600000000, 1.000000000
3808, 96.600000000, 7.600000000, 1.000000000
3809, 97.980000000, 7.600000000, 1.000000000
3810, 99.360000000, 7.600000000, 1.000000000
3811, 100.740000000, 7.600000000, 1.000000000
3812, 102.120000000, 7.600000000, 1.000000000
3813, 103.500000000, 7.600000000, 1.000000000
3814, 104.880000000, 7.600000000, 1.000000000
3815, 106.260000000, 7.600000000, 1.000000000
3816, 107.640000000, 7.600000000, 1.000000000
3817, 109.020000000, 7.600000000, 1.000000000
3818, 110.400000000, 7.600000000, 1.000000000
3819, 111.780000000, 7.600000000, 1.000000000
3820, 113.160000000, 7.600000000, 1.000000000
3821, 114.540000000, 7.600000000, 1.000000000
3822, 115.920000000, 7.600000000, 1.000000000
3823, 117.300000000, 7.600000000, 1.000000000
3824, 118.680000000, 7.600000000, 1.000000000
3825, 120.060000000, 7.600000000, 1.000000000
3826, 121.440000000, 7.600000000, 1.000000000
3827, 122.820000000, 7.600000000, 1.000000000
3828, 124.200000000, 7.600000000, 1.000000000
3829, 125.580000000, 7.600000000, 1.000000000
3830, 126.960000000, 7.600000000, 1.000000000
3831, 128.340000000, 7.600000000, 1.000000000
3832, 129.720000000, 7.600000000, 1.000000000
3833, 131.100000000, 7.600000000, 1.000000000
3834, 132.480000000, 7.600000000, 1.000000000
3835, 133.860000000, 7.600000000, 1.000000000
3836, 135.240000000, 7.600000000, 1.000000000
3837, 136.620000000, 7.600000000, 1.000000000
3838, 138.000000000, 7.600000000, 1.000000000
3839, 0.000000000, 8.866666667, 1.000000000
3840, 1.380000000, 8.866666667, 1.000000000
3841, 2.760000000, 8.866666667, 1.000000000
3842, 4.140000000, 8.866666667, 1.000000000
3843, 5.520000000, 8.866666667, 1.000000000
3844, 6.900000000, 8.866666667, 1.000000000
3845, 8.280000000, 8.866666667, 1.000000000
3846, 9.660000000, 8.866666667, 1.000000000
3847, 11.040000000, 8.866666667, 1.000000000
3848, 12.420000000, 8.866666667, 1.000000000
3849, 13.800000000, 8.866666667, 1.000000000
3850, 15.180000000, 8.866666667, 1.000000000
3851, 16.560000000, 8.866666667, 1.000000000
3852, 17.940000000, 8.866666667, 1.000000000
3853, 19.320000000, 8.866666667, 1.000000000
3854, 20.700000000, 8.866666667, 1.000000000
3855, 22.080000000, 8.866666667, 1.000000000
3856, 23.460000000, 8.866666667, 1.000000000
3857, 24.840000000, 8.866666667, 1.000000000
3858, 26.220000000, 8.866666667, 1.000000000
3859, 27.600000000, 8.866666667, 1.000000000
3860, 28.980000000, 8.866666667, 1.000000000
3861, 30.360000000, 8.866666667, 1.000000000
3862, 31.740000000, 8.866666667, 1.000000000
3863, 33.120000000, 8.866666667, 1.000000000
3864, 34.500000000, 8.866666667, 1.000000000
3865, 35.880000000, 8.866666667, 1.000000000
3866, 37.260000000, 8.866666667, 1.000000000
3867, 38.640000000, 8.866666667, 1.000000000
3868, 40.020000000, 8.866666667, 1.000000000
3869, 41.400000000, 8.866666667, 1.000000000
3870, 42.780000000, 8.866666667, 1.000000000
3871, 44.160000000, 8.866666667, 1.000000000
3872, 45.540000000, 8.866666667, 1.000000000
3873, 46.920000000, 8.866666667, 1.000000000
3874, 48.300000000, 8.866666667, 1.000000000
3875, 49.680000000, 8.866666667, 1.000000000
3876, 51.060000000, 8.866666667, 1.000000000
3877, 52.440000000, 8.866666667, 1.000000000
3878, 53.820000000, 8.866666667, 1.000000000
3879, 55.200000000, 8.866666667, 1.000000000
3880, 56.580000000, 8.866666667, 1.000000000
3881, 57.960000000, 8.866666667, 1.000000000
3882, 59.340000000, 8.866666667, 1.000000000
3883, 60.720000000, 8.866666667, 1.000000000
3884, 62.100000000, 8.866666667, 1.000000000
3885, 63.480000000, 8.866666667, 1.000000000
3886, 64.860000000, 8.866666667, 1.000000000
3887, 66.240000000, 8.866666667, 1.000000000
3888, 67.620000000, 8.866666667, 1.000000000
3889, 69.000000000, 8.866666667, 1.000000000
3890, 70.380000000, 8.866666667, 1.000000000
3891, 71.760000000, 8.866666667, 1.000000000
3892, 73.140000000, 8.866666667, 1.000000000
3893, 74.520000000, 8.866666667, 1.000000000
3894, 75.900000000, 8.866666667, 1.000000000
3895, 77.280000000, 8.866666667, 1.000000000
3896, 78.660000000, 8.866666667, 1.000000000
3897, 80.040000000, 8.866666667, 1.000000000
3898, 81.420000000, 8.866666667, 1.000000000
3899, 82.800000000, 8.866666667, 1.000000000
3900, 84.180000000, 8.866666667, 1.000000000
3901, 85.560000000, 8.866666667, 1.000000000
3902, 86.940000000, 8.866666667, 1.000000000
3903, 88.320000000, 8.866666667, 1.000000000
3904, 89.700000000, 8.866666667, 1.000000000
3905, 91.080000000, 8.866666667, 1.000000000
3906, 92.460000000, 8.866666667, 1.000000000
3907, 93.840000000, 8.866666667, 1.000000000
3908, 95.220000000, 8.866666667, 1.000000000
3909, 96.600000000, 8.866666667, 1.000000000
3910, 97.980000000, 8.866666667, 1.000000000
3911, 99.360000000, 8.866666667, 1.000000000
3912, 100.740000000, 8.866666667, 1.000000000
3913, 102.120000000, 8.866666667, 1.000000000
3914, 103.500000000, 8.866666667, 1.000000000
3915, 104.880000000, 8.866666667, 1.000000000
3916, 106.260000000, 8.866666667, 1.000000000
3917, 107.640000000, 8.866666667, 1.000000000
3918, 109.020000000, 8.866666667, 1.000000000
3919, 110.400000000, 8.866666667, 1.000000000
3920, 111.780000000, 8.866666667, 1.000000000
3921, 113.160000000, 8.866666667, 1.000000000
3922, 114.540000000, 8.866666667, 1.000000000
3923, 115.920000000, 8.866666667, 1.000000000
3924, 117.300000000, 8.866666667, 1.000000000
3925, 118.680000000, 8.866666667, 1.000000000
3926, 120.060000000, 8.866666667, 1.000000000
3927, 121.440000000, 8.866666667, 1.000000000
3928, 122.820000000, 8.866666667, 1.000000000
3929, 124.200000000, 8.866666667, 1.000000000
3930, 125.580000000, 8.866666667, 1.000000000
3931, 126.960000000, 8.866666667, 1.000000000
3932, 128.340000000, 8.866666667, 1.000000000
3933, 129.720000000, 8.866666667, 1.000000000
3934, 131.100000000, 8.866666667, 1.000000000
3935, 132.480000000, 8.866666667, 1.000000000
3936, 133.860000000, 8.866666667, 1.000000000
3937, 135.240000000, 8.866666667, 1.000000000
3938, 136.620000000, 8.866666667, 1.000000000
3939, 138.000000000, 8.866666667, 1.000000000
3940, 0.000000000, 10.133333333, 1.000000000
3941, 1.380000000, 10.133333333, 1.000000000
3942, 2.760000000, 10.133333333, 1.000000000
3943, 4.140000000, 10.133333333, 1.000000000
3944, 5.520000000, 10.133333333, 1.000000000
3945, 6.900000000, 10.133333333, 1.000000000
3946, 8.280000000, 10.133333333, 1.000000000
3947, 9.660000000, 10.133333333, 1.000000000
3948, 11.040000000, 10.133333333, 1.000000000
3949, 12.420000000, 10.133333333, 1.000000000
3950, 13.800000000, 10.133333333, 1.000000000
3951, 15.180000000, 10.133333333, 1.000000000
3952, 16.560000000, 10.133333333, 1.000000000
3953, 17.940000000, 10.133333333, 1.000000000
3954, 19.320000000, 10.133333333, 1.000000000
3955, 20.700000000, 10.133333333, 1.000000000
3956, 22.080000000, 10.133333333, 1.000000000
3957, 23.460000000, 10.133333333, 1.000000000
3958, 24.840000000, 10.133333333, 1.000000000
3959, 26.220000000, 10.133333333, 1.000000000
3960, 27.600000000, 10.133333333, 1.000000000
3961, 28.980000000, 10.133333333, 1.000000000
3962, 30.360000000, 10.133333333, 1.000000000
3963, 31.740000000, 10.133333333, 1.000000000
3964, 33.120000000, 10.133333333, 1.000000000
3965, 34.500000000, 10.133333333, 1.000000000
3966, 35.880000000, 10.133333333, 1.000000000
3967, 37.260000000, 10.133333333, 1.000000000
3968, 38.640000000, 10.133333333, 1.000000000
3969, 40.020000000, 10.133333333, 1.000000000
3970, 41.400000000, 10.133333333, 1.000000000
3971, 42.780000000, 10.133333333, 1.000000000
3972, 44.160000000, 10.133333333, 1.000000000
3973, 45.540000000, 10.133333333, 1.000000000
3974, 46.920000000, 10.133333333, 1.000000000
3975, 48.300000000, 10.133333333, 1.000000000
3976, 49.680000000, 10.133333333, 1.000000000
3977, 51.060000000, 10.133333333, 1.000000000
3978, 52.440000000, 10.133333333, 1.000000000
3979, 53.820000000, 10.133333333, 1.000000000
3980, 55.200000000, 10.133333333, 1.000000000
3981, 56.580000000, 10.133333333, 1.000000000
3982, 57.960000000, 10.133333333, 1.000000000
3983, 59.340000000, 10.133333333, 1.000000000
3984, 60.720000000, 10.133333333, 1.000000000
3985, 62.100000000, 10.133333333, 1.000000000
3986, 63.480000000, 10.133333333, 1.000000000
3987, 64.860000000, 10.133333333, 1.000000000
3988, 66.240000000, 10.133333333, 1.000000000
3989, 67.620000000, 10.133333333, 1.000000000
3990, 69.000000000, 10.133333333, 1.000000000
3991, 70.380000000, 10.133333333, 1.000000000
3992, 71.760000000, 10.133333333, 1.000000000
3993, 73.140000000, 10.133333333, 1.000000000
3994, 74.520000000, 10.133333333, 1.000000000
3995, 75.900000000, 10.133333333, 1.000000000
3996, 77.280000000, 10.133333333, 1.000000000
3997, 78.660000000, 10.133333333, 1.000000000
3998, 80.040000000, 10.133333333, 1.000000000
3999, 81.420000000, 10.133333333, 1.000000000
4000, 82.800000000, 10.133333333, 1.000000000
4001, 84.180000000, 10.133333333, 1.000000000
4002, 85.560000000, 10.133333333, 1.000000000
4003, 86.940000000, 10.133333333, 1.000000000
4004, 88.320000000, 10.133333333, 1.000000000
4005, 89.700000000, 10.133333333, 1.000000000
4006, 91.080000000, 10.133333333, 1.000000000
4007, 92.460000000, 10.133333333, 1.000000000
4008, 93.840000000, 10.133333333, 1.000000000
4009, 95.220000000, 10.133333333, 1.000000000
4010, 96.600000000, 10.133333333, 1.000000000
4011, 97.980000000, 10.133333333, 1.000000000
4012, 99.360000000, 10.133333333, 1.000000000
4013, 100.740000000, 10.133333333, 1.000000000
4014, 102.120000000, 10.133333333, 1.000000000
4015, 103.500000000, 10.133333333, 1.000000000
4016, 104.880000000, 10.133333333, 1.000000000
4017, 106.260000000, 10.133333333, 1.000000000
4018, 107.640000000, 10.133333333, 1.000000000
4019, 109.020000000, 10.133333333, 1.000000000
4020, 110.400000000, 10.133333333, 1.000000000
4021, 111.780000000, 10.133333333, 1.000000000
4022, 113.160000000, 10.133333333, 1.000000000
4023, 114.540000000, 10.133333333, 1.000000000
4024, 115.920000000, 10.133333333, 1.000000000
4025, 117.300000000, 10.133333333, 1.000000000
4026, 118.680000000, 10.133333333, 1.000000000
4027, 120.060000000, 10.133333333, 1.000000000
4028, 121.440000000, 10.133333333, 1.000000000
4029, 122.820000000, 10.133333333, 1.000000000
4030, 124.200000000, 10.133333333, 1.000000000
4031, 125.580000000, 10.133333333, 1.000000000
4032, 126.960000000, 10.133333333, 1.000000000
4033, 128.340000000, 10.133333333, 1.000000000
4034, 129.720000000, 10.133333333, 1.000000000
4035, 131.100000000, 10.133333333, 1.000000000
4036, 132.480000000, 10.133333333, 1.000000000
4037, 133.860000000, 10.133333333, 1.000000000
4038, 135.240000000, 10.133333333, 1.000000000
4039, 136.620000000, 10.133333333, 1.000000000
4040, 138.000000000, 10.133333333, 1.000000000
4041, 0.000000000, 11.400000000, 1.000000000
4042, 1.380000000, 11.400000000, 1.000000000
4043, 2.760000000, 11.400000000, 1.000000000
4044, 4.140000000, 11.400000000, 1.000000000
4045, 5.520000000, 11.400000000, 1.000000000
4046, 6.900000000, 11.400000000, 1.000000000
4047, 8.280000000, 11.400000000, 1.000000000
4048, 9.660000000, 11.400000000, 1.000000000
4049, 11.040000000, 11.400000000, 1.000000000
4050, 12.420000000, 11.400000000, 1.000000000
4051, 13.800000000, 11.400000000, 1.000000000
4052, 15.180000000, 11.400000000, 1.000000000
4053, 16.560000000, 11.400000000, 1.000000000
4054, 17.940000000, 11.400000000, 1.000000000
4055, 19.320000000, 11.400000000, 1.000000000
4056, 20.700000000, 11.400000000, 1.000000000
4057, 22.080000000, 11.400000000, 1.000000000
4058, 23.460000000, 11.400000000, 1.000000000
4059, 24.840000000, 11.400000000, 1.000000000
4060, 26.220000000, 11.400000000, 1.000000000
4061, 27.600000000, 11.400000000, 1.000000000
4062, 28.980000000, 11.400000000, 1.000000000
4063, 30.360000000, 11.400000000, 1.000000000
4064, 31.740000000, 11.400000000, 1.000000000
4065, 33.120000000, 11.400000000, 1.000000000
4066, 34.500000000, 11.400000000, 1.000000000
4067, 35.880000000, 11.400000000, 1.000000000
4068, 37.260000000, 11.400000000, 1.000000000
4069, 38.640000000, 11.400000000, 1.000000000
4070, 40.020000000, 11.400000000, 1.000000000
4071, 41.400000000, 11.400000000, 1.000000000
4072, 42.780000000, 11.400000000, 1.000000000
4073, 44.160000000, 11.400000000, 1.000000000
4074, 45.540000000, 11.400000000, 1.000000000
4075, 46.920000000, 11.400000000, 1.000000000
4076, 48.300000000, 11.400000000, 1.000000000
4077, 49.680000000, 11.400000000, 1.000000000
4078, 51.060000000, 11.400000000, 1.000000000
4079, 52.440000000, 11.400000000, 1.000000000
4080, 53.820000000, 11.400000000, 1.000000000
4081, 55.200000000, 11.400000000, 1.000000000
4082, 56.580000000, 11.400000000, 1.000000000
4083, 57.960000000, 11.400000000, 1.000000000
4084, 59.340000000, 11.400000000, 1.000000000
4085, 60.720000000, 11.400000000, 1.000000000
4086, 62.100000000, 11.400000000, 1.000000000
4087, 63.480000000, 11.400000000, 1.000000000
4088, 64.860000000, 11.400000000, 1.000000000
4089, 66.240000000, 11.400000000, 1.000000000
4090, 67.620000000, 11.400000000, 1.000000000
4091, 69.000000000, 11.400000000, 1.000000000
4092, 70.380000000, 11.400000000, 1.000000000
4093, 71.760000000, 11.400000000, 1.000000000
4094, 73.140000000, 11.400000000, 1.000000000
4095, 74.520000000, 11.400000000, 1.000000000
4096, 75.900000000, 11.400000000, 1.000000000
4097, 77.280000000, 11.400000000, 1.000000000
4098, 78.660000000, 11.400000000, 1.000000000
4099, 80.040000000, 11.400000000, 1.000000000
4100, 81.420000000, 11.400000000, 1.000000000
4101, 82.800000000, 11.400000000, 1.000000000
4102, 84.180000000, 11.400000000, 1.000000000
4103, 85.560000000, 11.400000000, 1.000000000
4104, 86.940000000, 11.400000000, 1.000000000
4105, 88.320000000, 11.400000000, 1.000000000
4106, 89.700000000, 11.400000000, 1.000000000
4107, 91.080000000, 11.400000000, 1.000000000
4108, 92.460000000, 11.400000000, 1.000000000
4109, 93.840000000, 11.400000000, 1.000000000
4110, 95.220000000, 11.400000000, 1.000000000
4111, 96.600000000, 11.400000000, 1.000000000
4112, 97.980000000, 11.400000000, 1.000000000
4113, 99.360000000, 11.400000000, 1.000000000
4114, 100.740000000, 11.400000000, 1.000000000
4115, 102.120000000, 11.400000000, 1.000000000
4116, 103.500000000, 11.400000000, 1.000000000
4117, 104.880000000, 11.400000000, 1.000000000
4118, 106.260000000, 11.400000000, 1.000000000
4119, 107.640000000, 11.400000000, 1.000000000
4120, 109.020000000, 11.400000000, 1.000000000
4121, 110.400000000, 11.400000000, 1.000000000
4122, 111.780000000, 11.400000000, 1.000000000
4123, 113.160000000, 11.400000000, 1.000000000
4124, 114.540000000, 11.400000000, 1.000000000
4125, 115.920000000, 11.400000000, 1.000000000
4126, 117.300000000, 11.400000000, 1.000000000
4127, 118.680000000, 11.400000000, 1.000000000
4128, 120.060000000, 11.400000000, 1.000000000
4129, 121.440000000, 11.400000000, 1.000000000
4130, 122.820000000, 11.400000000, 1.000000000
4131, 124.200000000, 11.400000000, 1.000000000
4132, 125.580000000, 11.400000000, 1.000000000
4133, 126.960000000, 11.400000000, 1.000000000
4134, 128.340000000, 11.400000000, 1.000000000
4135, 129.720000000, 11.400000000, 1.000000000
4136, 131.100000000, 11.400000000, 1.000000000
4137, 132.480000000, 11.400000000, 1.000000000
4138, 133.860000000, 11.400000000, 1.000000000
4139, 135.240000000, 11.400000000, 1.000000000
4140, 136.620000000, 11.400000000, 1.000000000
4141, 138.000000000, 11.400000000, 1.000000000
4142, 0.000000000, 12.666666667, 1.000000000
4143, 1.380000000, 12.666666667, 1.000000000
4144, 2.760000000, 12.666666667, 1.000000000
4145, 4.140000000, 12.666666667, 1.000000000
4146, 5.520000000, 12.666666667, 1.000000000
4147, 6.900000000, 12.666666667, 1.000000000
4148, 8.280000000, 12.666666667, 1.000000000
4149, 9.660000000, 12.666666667, 1.000000000
4150, 11.040000000, 12.666666667, 1.000000000
4151, 12.420000000, 12.666666667, 1.000000000
4152, 13.800000000, 12.666666667, 1.000000000
4153, 15.180000000, 12.666666667, 1.000000000
4154, 16.560000000, 12.666666667, 1.000000000
4155, 17.940000000, 12.666666667, 1.000000000
4156, 19.320000000, 12.666666667, 1.000000000
4157, 20.700000000, 12.666666667, 1.000000000
4158, 22.080000000, 12.666666667, 1.000000000
4159, 23.460000000, 12.666666667, 1.000000000
4160, 24.840000000, 12.666666667, 1.000000000
4161, 26.220000000, 12.666666667, 1.000000000
4162, 27.600000000, 12.666666667, 1.000000000
4163, 28.980000000, 12.666666667, 1.000000000
4164, 30.360000000, 12.666666667, 1.000000000
4165, 31.740000000, 12.666666667, 1.000000000
4166, 33.120000000, 12.666666667, 1.000000000
4167, 34.500000000, 12.666666667, 1.000000000
4168, 35.880000000, 12.666666667, 1.000000000
4169, 37.260000000, 12.666666667, 1.000000000
4170, 38.640000000, 12.666666667, 1.000000000
4171, 40.020000000, 12.666666667, 1.000000000
4172, 41.400000000, 12.666666667, 1.000000000
4173, 42.780000000, 12.666666667, 1.000000000
4174, 44.160000000, 12.666666667, 1.000000000
4175, 45.540000000, 12.666666667, 1.000000000
4176, 46.920000000, 12.666666667, 1.000000000
4177, 48.300000000, 12.666666667, 1.000000000
4178, 49.680000000, 12.666666667, 1.000000000
4179, 51.060000000, 12.666666667, 1.000000000
4180, 52.440000000, 12.666666667, 1.000000000
4181, 53.820000000, 12.666666667, 1.000000000
4182, 55.200000000, 12.666666667, 1.000000000
4183, 56.580000000, 12.666666667, 1.000000000
4184, 57.960000000, 12.666666667, 1.000000000
4185, 59.340000000, 12.666666667, 1.000000000
4186, 60.720000000, 12.666666667, 1.000000000
4187, 62.100000000, 12.666666667, 1.000000000
4188, 63.480000000, 12.666666667, 1.000000000
4189, 64.860000000, 12.666666667, 1.000000000
4190, 66.240000000, 12.666666667, 1.000000000
4191, 67.620000000, 12.666666667, 1.000000000
4192, 69.000000000, 12.666666667, 1.000000000
4193, 70.380000000, 12.666666667, 1.000000000
4194, 71.760000000, 12.666666667, 1.000000000
4195, 73.140000000, 12.666666667, 1.000000000
4196, 74.520000000, 12.666666667, 1.000000000
4197, 75.900000000, 12.666666667, 1.000000000
4198, 77.280000000, 12.666666667, 1.000000000
4199, 78.660000000, 12.666666667, 1.000000000
4200, 80.040000000, 12.666666667, 1.000000000
4201, 81.420000000, 12.666666667, 1.000000000
4202, 82.800000000, 12.666666667, 1.000000000
4203, 84.180000000, 12.666666667, 1.000000000
4204, 85.560000000, 12.666666667, 1.000000000
4205, 86.940000000, 12.666666667, 1.000000000
4206, 88.320000000, 12.666666667, 1.000000000
4207, 89.700000000, 12.666666667, 1.000000000
4208, 91.080000000, 12.666666667, 1.000000000
4209, 92.460000000, 12.666666667, 1.000000000
4210, 93.840000000, 12.666666667, 1.000000000
4211, 95.220000000, 12.666666667, 1.000000000
4212, 96.600000000, 12.666666667, 1.000000000
4213, 97.980000000, 12.666666667, 1.000000000
4214, 99.360000000, 12.666666667, 1.000000000
4215, 100.740000000, 12.666666667, 1.000000000
4216, 102.120000000, 12.666666667, 1.000000000
4217, 103.500000000, 12.666666667, 1.000000000
4218, 104.880000000, 12.666666667, 1.000000000
4219, 106.260000000, 12.666666667, 1.000000000
4220, 107.640000000, 12.666666667, 1.000000000
4221, 109.020000000, 12.666666667, 1.000000000
4222, 110.400000000, 12.666666667, 1.000000000
4223, 111.780000000, 12.666666667, 1.000000000
4224, 113.160000000, 12.666666667, 1.000000000
4225, 114.540000000, 12.666666667, 1.000000000
4226, 115.920000000, 12.666666667, 1.000000000
4227, 117.300000000, 12.666666667, 1.000000000
4228, 118.680000000, 12.666666667, 1.000000000
4229, 120.060000000, 12.666666667, 1.000000000
4230, 121.440000000, 12.666666667, 1.000000000
4231, 122.820000000, 12.666666667, 1.000000000
4232, 124.200000000, 12.666666667, 1.000000000
4233, 125.580000000, 12.666666667, 1.000000000
4234, 126.960000000, 12.666666667, 1.000000000
4235, 128.340000000, 12.666666667, 1.000000000
4236, 129.720000000, 12.666666667, 1.000000000
4237, 131.100000000, 12.666666667, 1.000000000
4238, 132.480000000, 12.666666667, 1.000000000
4239, 133.860000000, 12.666666667, 1.000000000
4240, 135.240000000, 12.666666667, 1.000000000
4241, 136.620000000, 12.666666667, 1.000000000
4242, 138.000000000, 12.666666667, 1.000000000
4243, 0.000000000, 13.933333333, 1.000000000
4244, 1.380000000, 13.933333333, 1.000000000
4245, 2.760000000, 13.933333333, 1.000000000
4246, 4.140000000, 13.933333333, 1.000000000
4247, 5.520000000, 13.933333333, 1.000000000
4248, 6.900000000, 13.933333333, 1.000000000
4249, 8.280000000, 13.933333333, 1.000000000
4250, 9.660000000, 13.933333333, 1.000000000
4251, 11.040000000, 13.933333333, 1.000000000
4252, 12.420000000, 13.933333333, 1.000000000
4253, 13.800000000, 13.933333333, 1.000000000
4254, 15.180000000, 13.933333333, 1.000000000
4255, 16.560000000, 13.933333333, 1.000000000
4256, 17.940000000, 13.933333333, 1.000000000
4257, 19.320000000, 13.933333333, 1.000000000
4258, 20.700000000, 13.933333333, 1.000000000
4259, 22.080000000, 13.933333333, 1.000000000
4260, 23.460000000, 13.933333333, 1.000000000
4261, 24.840000000, 13.933333333, 1.000000000
4262, 26.220000000, 13.933333333, 1.000000000
4263, 27.600000000, 13.933333333, 1.000000000
4264, 28.980000000, 13.933333333, 1.000000000
4265, 30.360000000, 13.933333333, 1.000000000
4266, 31.740000000, 13.933333333, 1.000000000
4267, 33.120000000, 13.933333333, 1.000000000
4268, 34.500000000, 13.933333333, 1.000000000
4269, 35.880000000, 13.933333333, 1.000000000
4270, 37.260000000, 13.933333333, 1.000000000
4271, 38.640000000, 13.933333333, 1.000000000
4272, 40.020000000, 13.933333333, 1.000000000
4273, 41.400000000, 13.933333333, 1.000000000
4274, 42.780000000, 13.933333333, 1.000000000
4275, 44.160000000, 13.933333333, 1.000000000
4276, 45.540000000, 13.933333333, 1.000000000
4277, 46.920000000, 13.933333333, 1.000000000
4278, 48.300000000, 13.933333333, 1.000000000
4279, 49.680000000, 13.933333333, 1.000000000
4280, 51.060000000, 13.933333333, 1.000000000
4281, 52.440000000, 13.933333333, 1.000000000
4282, 53.820000000, 13.933333333, 1.000000000
4283, 55.200000000, 13.933333333, 1.000000000
4284, 56.580000000, 13.933333333, 1.000000000
4285, 57.960000000, 13.933333333, 1.000000000
4286, 59.340000000, 13.933333333, 1.000000000
4287, 60.720000000, 13.933333333, 1.000000000
4288, 62.100000000, 13.933333333, 1.000000000
4289, 63.480000000, 13.933333333, 1.000000000
4290, 64.860000000, 13.933333333, 1.000000000
4291, 66.240000000, 13.933333333, 1.000000000
4292, 67.620000000, 13.933333333, 1.000000000
4293, 69.000000000, 13.933333333, 1.000000000
4294, 70.380000000, 13.933333333, 1.000000000
4295, 71.760000000, 13.933333333, 1.000000000
4296, 73.140000000, 13.933333333, 1.000000000
4297, 74.520000000, 13.933333333, 1.000000000
4298, 75.900000000, 13.933333333, 1.000000000
4299, 77.280000000, 13.933333333, 1.000000000
4300, 78.660000000, 13.933333333, 1.000000000
4301, 80.040000000, 13.933333333, 1.000000000
4302, 81.420000000, 13.933333333, 1.000000000
4303, 82.800000000, 13.933333333, 1.000000000
4304, 84.180000000, 13.933333333, 1.000000000
4305, 85.560000000, 13.933333333, 1.000000000
4306, 86.940000000, 13.933333333, 1.000000000
4307, 88.320000000, 13.933333333, 1.000000000
4308, 89.700000000, 13.933333333, 1.000000000
4309, 91.080000000, 13.933333333, 1.000000000
4310, 92.460000000, 13.933333333, 1.000000000
4311, 93.840000000, 13.933333333, 1.000000000
4312, 95.220000000, 13.933333333, 1.000000000
4313, 96.600000000, 13.933333333, 1.000000000
4314, 97.980000000, 13.933333333, 1.000000000
4315, 99.360000000, 13.933333333, 1.000000000
4316, 100.740000000, 13.933333333, 1.000000000
4317, 102.120000000, 13.933333333, 1.000000000
4318, 103.500000000, 13.933333333, 1.000000000
4319, 104.880000000, 13.933333333, 1.000000000
4320, 106.260000000, 13.933333333, 1.000000000
4321, 107.640000000, 13.933333333, 1.000000000
4322, 109.020000000, 13.933333333, 1.000000000
4323, 110.400000000, 13.933333333, 1.000000000
4324, 111.780000000, 13.933333333, 1.000000000
4325, 113.160000000, 13.933333333, 1.000000000
4326, 114.540000000, 13.933333333, 1.000000000
4327, 115.920000000, 13.933333333, 1.000000000
4328, 117.300000000, 13.933333333, 1.000000000
4329, 118.680000000, 13.933333333, 1.000000000
4330, 120.060000000, 13.933333333, 1.000000000
4331, 121.440000000, 13.933333333, 1.000000000
4332, 122.820000000, 13.933333333, 1.000000000
4333, 124.200000000, 13.933333333, 1.000000000
4334, 125.580000000, 13.933333333, 1.000000000
4335, 126.960000000, 13.933333333, 1.000000000
4336, 128.340000000, 13.933333333, 1.000000000
4337, 129.720000000, 13.933333333, 1.000000000
4338, 131.100000000, 13.933333333, 1.000000000
4339, 132.480000000, 13.933333333, 1.000000000
4340, 133.860000000, 13.933333333, 1.000000000
4341, 135.240000000, 13.933333333, 1.000000000
4342, 136.620000000, 13.933333333, 1.000000000
4343, 138.000000000, 13.933333333, 1.000000000
4344, 0.000000000, 15.200000000, 1.000000000
4345, 1.380000000, 15.200000000, 1.000000000
4346, 2.760000000, 15.200000000, 1.000000000
4347, 4.140000000, 15.200000000, 1.000000000
4348, 5.520000000, 15.200000000, 1.000000000
4349, 6.900000000, 15.200000000, 1.000000000
4350, 8.280000000, 15.200000000, 1.000000000
4351, 9.660000000, 15.200000000, 1.000000000
4352, 11.040000000, 15.200000000, 1.000000000
4353, 12.420000000, 15.200000000, 1.000000000
4354, 13.800000000, 15.200000000, 1.000000000
4355, 15.180000000, 15.200000000, 1.000000000
4356, 16.560000000, 15.200000000, 1.000000000
4357, 17.940000000, 15.200000000, 1.000000000
4358, 19.320000000, 15.200000000, 1.000000000
4359, 20.700000000, 15.200000000, 1.000000000
4360, 22.080000000, 15.200000000, 1.000000000
4361, 23.460000000, 15.200000000, 1.000000000
4362, 24.840000000, 15.200000000, 1.000000000
4363, 26.220000000, 15.200000000, 1.000000000
4364, 27.600000000, 15.200000000, 1.000000000
4365, 28.980000000, 15.200000000, 1.000000000
4366, 30.360000000, 15.200000000, 1.000000000
4367, 31.740000000, 15.200000000, 1.000000000
4368, 33.120000000, 15.200000000, 1.000000000
4369, 34.500000000, 15.200000000, 1.000000000
4370, 35.880000000, 15.200000000, 1.000000000
4371, 37.260000000, 15.200000000, 1.000000000
4372, 38.640000000, 15.200000000, 1.000000000
4373, 40.020000000, 15.200000000, 1.000000000
4374, 41.400000000, 15.200000000, 1.000000000
4375, 42.780000000, 15.200000000, 1.000000000
4376, 44.160000000, 15.200000000, 1.000000000
4377, 45.540000000, 15.200000000, 1.000000000
4378, 46.920000000, 15.200000000, 1.000000000
4379, 48.300000000, 15.200000000, 1.000000000
4380, 49.680000000, 15.200000000, 1.000000000
4381, 51.060000000, 15.200000000, 1.000000000
4382, 52.440000000, 15.200000000, 1.000000000
4383, 53.820000000, 15.200000000, 1.000000000
4384, 55.200000000, 15.200000000, 1.000000000
4385, 56.580000000, 15.200000000, 1.000000000
4386, 57.960000000, 15.200000000, 1.000000000
4387, 59.340000000, 15.200000000, 1.000000000
4388, 60.720000000, 15.200000000, 1.000000000
4389, 62.100000000, 15.200000000, 1.000000000
4390, 63.480000000, 15.200000000, 1.000000000
4391, 64.860000000, 15.200000000, 1.000000000
4392, 66.240000000, 15.200000000, 1.000000000
4393, 67.620000000, 15.200000000, 1.000000000
4394, 69.000000000, 15.200000000, 1.000000000
4395, 70.380000000, 15.200000000, 1.000000000
4396, 71.760000000, 15.200000000, 1.000000000
4397, 73.140000000, 15.200000000, 1.000000000
4398, 74.520000000, 15.200000000, 1.000000000
4399, 75.900000000, 15.200000000, 1.000000000
4400, 77.280000000, 15.200000000, 1.000000000
4401, 78.660000000, 15.200000000, 1.000000000
4402, 80.040000000, 15.200000000, 1.000000000
4403, 81.420000000, 15.200000000, 1.000000000
4404, 82.800000000, 15.200000000, 1.000000000
4405, 84.180000000, 15.200000000, 1.000000000
4406, 85.560000000, 15.200000000, 1.000000000
4407, 86.940000000, 15.200000000, 1.000000000
4408, 88.320000000, 15.200000000, 1.000000000
4409, 89.700000000, 15.200000000, 1.000000000
4410, 91.080000000, 15.200000000, 1.000000000
4411, 92.460000000, 15.200000000, 1.000000000
4412, 93.840000000, 15.200000000, 1.000000000
4413, 95.220000000, 15.200000000, 1.000000000
4414, 96.600000000, 15.200000000, 1.000000000
4415, 97.980000000, 15.200000000, 1.000000000
4416, 99.360000000, 15.200000000, 1.000000000
4417, 100.740000000, 15.200000000, 1.000000000
4418, 102.120000000, 15.200000000, 1.000000000
4419, 103.500000000, 15.200000000, 1.000000000
4420, 104.880000000, 15.200000000, 1.000000000
4421, 106.260000000, 15.200000000, 1.000000000
4422, 107.640000000, 15.200000000, 1.000000000
4423, 109.020000000, 15.200000000, 1.000000000
4424, 110.400000000, 15.200000000, 1.000000000
4425, 111.780000000, 15.200000000, 1.000000000
4426, 113.160000000, 15.200000000, 1.000000000
4427, 114.540000000, 15.200000000, 1.000000000
4428, 115.920000000, 15.200000000, 1.000000000
4429, 117.300000000, 15.200000000, 1.000000000
4430, 118.680000000, 15.200000000, 1.000000000
4431, 120.060000000, 15.200000000, 1.000000000
4432, 121.440000000, 15.200000000, 1.000000000
4433, 122.820000000, 15.200000000, 1.000000000
4434, 124.200000000, 15.200000000, 1.000000000
4435, 125.580000000, 15.200000000, 1.000000000
4436, 126.960000000, 15.200000000, 1.000000000
4437, 128.340000000, 15.200000000, 1.000000000
4438, 129.720000000, 15.200000000, 1.000000000
4439, 131.100000000, 15.200000000, 1.000000000
4440, 132.480000000, 15.200000000, 1.000000000
4441, 133.860000000, 15.200000000, 1.000000000
4442, 135.240000000, 15.200000000, 1.000000000
4443, 136.620000000, 15.200000000, 1.000000000
4444, 138.000000000, 15.200000000, 1.000000000
4445, 0.000000000, 16.466666667, 1.000000000
4446, 1.380000000, 16.466666667, 1.000000000
4447, 2.760000000, 16.466666667, 1.000000000
4448, 4.140000000, 16.466666667, 1.000000000
4449, 5.520000000, 16.466666667, 1.000000000
4450, 6.900000000, 16.466666667, 1.000000000
4451, 8.280000000, 16.466666667, 1.000000000
4452, 9.660000000, 16.466666667, 1.000000000
4453, 11.040000000, 16.466666667, 1.000000000
4454, 12.420000000, 16.466666667, 1.000000000
4455, 13.800000000, 16.466666667, 1.000000000
4456, 15.180000000, 16.466666667, 1.000000000
4457, 16.560000000, 16.466666667, 1.000000000
4458, 17.940000000, 16.466666667, 1.000000000
4459, 19.320000000, 16.466666667, 1.000000000
4460, 20.700000000, 16.466666667, 1.000000000
4461, 22.080000000, 16.466666667, 1.000000000
4462, 23.460000000, 16.466666667, 1.000000000
4463, 24.840000000, 16.466666667, 1.000000000
4464, 26.220000000, 16.466666667, 1.000000000
4465, 27.600000000, 16.466666667, 1.000000000
4466, 28.980000000, 16.466666667, 1.000000000
4467, 30.360000000, 16.466666667, 1.000000000
4468, 31.740000000, 16.466666667, 1.000000000
4469, 33.120000000, 16.466666667, 1.000000000
4470, 34.500000000, 16.466666667, 1.000000000
4471, 35.880000000, 16.466666667, 1.000000000
4472, 37.260000000, 16.466666667, 1.000000000
4473, 38.640000000, 16.466666667, 1.000000000
4474, 40.020000000, 16.466666667, 1.000000000
4475, 41.400000000, 16.466666667, 1.000000000
4476, 42.780000000, 16.466666667, 1.000000000
4477, 44.160000000, 16.466666667, 1.000000000
4478, 45.540000000, 16.466666667, 1.000000000
4479, 46.920000000, 16.466666667, 1.000000000
4480, 48.300000000, 16.466666667, 1.000000000
4481, 49.680000000, 16.466666667, 1.000000000
4482, 51.060000000, 16.466666667, 1.000000000
4483, 52.440000000, 16.466666667, 1.000000000
4484, 53.820000000, 16.466666667, 1.000000000
4485, 55.200000000, 16.466666667, 1.000000000
4486, 56.580000000, 16.466666667, 1.000000000
4487, 57.960000000, 16.466666667, 1.000000000
4488, 59.340000000, 16.466666667, 1.000000000
4489, 60.720000000, 16.466666667, 1.000000000
4490, 62.100000000, 16.466666667, 1.000000000
4491, 63.480000000, 16.466666667, 1.000000000
4492, 64.860000000, 16.466666667, 1.000000000
4493, 66.240000000, 16.466666667, 1.000000000
4494, 67.620000000, 16.466666667, 1.000000000
4495, 69.000000000, 16.466666667, 1.000000000
4496, 70.380000000, 16.466666667, 1.000000000
4497, 71.760000000, 16.466666667, 1.000000000
4498, 73.140000000, 16.466666667, 1.000000000
4499, 74.520000000, 16.466666667, 1.000000000
4500, 75.900000000, 16.466666667, 1.000000000
4501, 77.280000000, 16.466666667, 1.000000000
4502, 78.660000000, 16.466666667, 1.000000000
4503, 80.040000000, 16.466666667, 1.000000000
4504, 81.420000000, 16.466666667, 1.000000000
4505, 82.800000000, 16.466666667, 1.000000000
4506, 84.180000000, 16.466666667, 1.000000000
4507, 85.560000000, 16.466666667, 1.000000000
4508, 86.940000000, 16.466666667, 1.000000000
4509, 88.320000000, 16.466666667, 1.000000000
4510, 89.700000000, 16.466666667, 1.000000000
4511, 91.080000000, 16.466666667, 1.000000000
4512, 92.460000000, 16.466666667, 1.000000000
4513, 93.840000000, 16.466666667, 1.000000000
4514, 95.220000000, 16.466666667, 1.000000000
4515, 96.600000000, 16.466666667, 1.000000000
4516, 97.980000000, 16.466666667, 1.000000000
4517, 99.360000000, 16.466666667, 1.000000000
4518, 100.740000000, 16.466666667, 1.000000000
4519, 102.120000000, 16.466666667, 1.000000000
4520, 103.500000000, 16.466666667, 1.000000000
4521, 104.880000000, 16.466666667, 1.000000000
4522, 106.260000000, 16.466666667, 1.000000000
4523, 107.640000000, 16.466666667, 1.000000000
4524, 109.020000000, 16.466666667, 1.000000000
4525, 110.400000000, 16.466666667, 1.000000000
4526, 111.780000000, 16.466666667, 1.000000000
4527, 113.160000000, 16.466666667, 1.000000000
4528, 114.540000000, 16.466666667, 1.000000000
4529, 115.920000000, 16.466666667, 1.000000000
4530, 117.300000000, 16.466666667, 1.000000000
4531, 118.680000000, 16.466666667, 1.000000000
4532, 120.060000000, 16.466666667, 1.000000000
4533, 121.440000000, 16.466666667, 1.000000000
4534, 122.820000000, 16.466666667, 1.000000000
4535, 124.200000000, 16.466666667, 1.000000000
4536, 125.580000000, 16.466666667, 1.000000000
4537, 126.960000000, 16.466666667, 1.000000000
4538, 128.340000000, 16.466666667, 1.000000000
4539, 129.720000000, 16.466666667, 1.000000000
4540, 131.100000000, 16.466666667, 1.000000000
4541, 132.480000000, 16.466666667, 1.000000000
4542, 133.860000000, 16.466666667, 1.000000000
4543, 135.240000000, 16.466666667, 1.000000000
4544, 136.620000000, 16.466666667, 1.000000000
4545, 138.000000000, 16.466666667, 1.000000000
4546, 0.000000000, 17.733333333, 1.000000000
4547, 1.380000000, 17.733333333, 1.000000000
4548, 2.760000000, 17.733333333, 1.000000000
4549, 4.140000000, 17.733333333, 1.000000000
4550, 5.520000000, 17.733333333, 1.000000000
4551, 6.900000000, 17.733333333, 1.000000000
4552, 8.280000000, 17.733333333, 1.000000000
4553, 9.660000000, 17.733333333, 1.000000000
4554, 11.040000000, 17.733333333, 1.000000000
4555, 12.420000000, 17.733333333, 1.000000000
4556, 13.800000000, 17.733333333, 1.000000000
4557, 15.180000000, 17.733333333, 1.000000000
4558, 16.560000000, 17.733333333, 1.000000000
4559, 17.940000000, 17.733333333, 1.000000000
4560, 19.320000000, 17.733333333, 1.000000000
4561, 20.700000000, 17.733333333, 1.000000000
4562, 22.080000000, 17.733333333, 1.000000000
4563, 23.460000000, 17.733333333, 1.000000000
4564, 24.840000000, 17.733333333, 1.000000000
4565, 26.220000000, 17.733333333, 1.000000000
4566, 27.600000000, 17.733333333, 1.000000000
4567, 28.980000000, 17.733333333, 1.000000000
4568, 30.360000000, 17.733333333, 1.000000000
4569, 31.740000000, 17.733333333, 1.000000000
4570, 33.120000000, 17.733333333, 1.000000000
4571, 34.500000000, 17.733333333, 1.000000000
4572, 35.880000000, 17.733333333, 1.000000000
4573, 37.260000000, 17.733333333, 1.000000000
4574, 38.640000000, 17.733333333, 1.000000000
4575, 40.020000000, 17.733333333, 1.000000000
4576, 41.400000000, 17.733333333, 1.000000000
4577, 42.780000000, 17.733333333, 1.000000000
4578, 44.160000000, 17.733333333, 1.000000000
4579, 45.540000000, 17.733333333, 1.000000000
4580, 46.920000000, 17.733333333, 1.000000000
4581, 48.300000000, 17.733333333, 1.000000000
4582, 49.680000000, 17.733333333, 1.000000000
4583, 51.060000000, 17.733333333, 1.000000000
4584, 52.440000000, 17.733333333, 1.000000000
4585, 53.820000000, 17.733333333, 1.000000000
4586, 55.200000000, 17.733333333, 1.000000000
4587, 56.580000000, 17.733333333, 1.000000000
4588, 57.960000000, 17.733333333, 1.000000000
4589, 59.340000000, 17.733333333, 1.000000000
4590, 60.720000000, 17.733333333, 1.000000000
4591, 62.100000000, 17.733333333, 1.000000000
4592, 63.480000000, 17.733333333, 1.000000000
4593, 64.860000000, 17.733333333, 1.000000000
4594, 66.240000000, 17.733333333, 1.000000000
4595, 67.620000000, 17.733333333, 1.000000000
4596, 69.000000000, 17.733333333, 1.000000000
4597, 70.380000000, 17.733333333, 1.000000000
4598, 71.760000000, 17.733333333, 1.000000000
4599, 73.140000000, 17.733333333, 1.000000000
4600, 74.520000000, 17.733333333, 1.000000000
4601, 75.900000000, 17.733333333, 1.000000000
4602, 77.280000000, 17.733333333, 1.000000000
4603, 78.660000000, 17.733333333, 1.000000000
4604, 80.040000000, 17.733333333, 1.000000000
4605, 81.420000000, 17.733333333, 1.000000000
4606, 82.800000000, 17.733333333, 1.000000000
4607, 84.180000000, 17.733333333, 1.000000000
4608, 85.560000000, 17.733333333, 1.000000000
4609, 86.940000000, 17.733333333, 1.000000000
4610, 88.320000000, 17.733333333, 1.000000000
4611, 89.700000000, 17.733333333, 1.000000000
4612, 91.080000000, 17.733333333, 1.000000000
4613, 92.460000000, 17.733333333, 1.000000000
4614, 93.840000000, 17.733333333, 1.000000000
4615, 95.220000000, 17.733333333, 1.000000000
4616, 96.600000000, 17.733333333, 1.000000000
4617, 97.980000000, 17.733333333, 1.000000000
4618, 99.360000000, 17.733333333, 1.000000000
4619, 100.740000000, 17.733333333, 1.000000000
4620, 102.120000000, 17.733333333, 1.000000000
4621, 103.500000000, 17.733333333, 1.000000000
4622, 104.880000000, 17.733333333, 1.000000000
4623, 106.260000000, 17.733333333, 1.000000000
4624, 107.640000000, 17.733333333, 1.000000000
4625, 109.020000000, 17.733333333, 1.000000000
4626, 110.400000000, 17.733333333, 1.000000000
4627, 111.780000000, 17.733333333, 1.000000000
4628, 113.160000000, 17.733333333, 1.000000000
4629, 114.540000000, 17.733333333, 1.000000000
4630, 115.920000000, 17.733333333, 1.000000000
4631, 117.300000000, 17.733333333, 1.000000000
4632, 118.680000000, 17.733333333, 1.000000000
4633, 120.060000000, 17.733333333, 1.000000000
4634, 121.440000000, 17.733333333, 1.000000000
4635, 122.820000000, 17.733333333, 1.000000000
4636, 124.200000000, 17.733333333, 1.000000000
4637, 125.580000000, 17.733333333, 1.000000000
4638, 126.960000000, 17.733333333, 1.000000000
4639, 128.340000000, 17.733333333, 1.000000000
4640, 129.720000000, 17.733333333, 1.000000000
4641, 131.100000000, 17.733333333, 1.000000000
4642, 132.480000000, 17.733333333, 1.000000000
4643, 133.860000000, 17.733333333, 1.000000000
4644, 135.240000000, 17.733333333, 1.000000000
4645, 136.620000000, 17.733333333, 1.000000000
4646, 138.000000000, 17.733333333, 1.000000000
4647, 0.000000000, 19.000000000, 1.000000000
4648, 1.380000000, 19.000000000, 1.000000000
4649, 2.760000000, 19.000000000, 1.000000000
4650, 4.140000000, 19.000000000, 1.000000000
4651, 5.520000000, 19.000000000, 1.000000000
4652, 6.900000000, 19.000000000, 1.000000000
4653, 8.280000000, 19.000000000, 1.000000000
4654, 9.660000000, 19.000000000, 1.000000000
4655, 11.040000000, 19.000000000, 1.000000000
4656, 12.420000000, 19.000000000, 1.000000000
4657, 13.800000000, 19.000000000, 1.000000000
4658, 15.180000000, 19.000000000, 1.000000000
4659, 16.560000000, 19.000000000, 1.000000000
4660, 17.940000000, 19.000000000, 1.000000000
4661, 19.320000000, 19.000000000, 1.000000000
4662, 20.700000000, 19.000000000, 1.000000000
4663, 22.080000000, 19.000000000, 1.000000000
4664, 23.460000000, 19.000000000, 1.000000000
4665, 24.840000000, 19.000000000, 1.000000000
4666, 26.220000000, 19.000000000, 1.000000000
4667, 27.600000000, 19.000000000, 1.000000000
4668, 28.980000000, 19.000000000, 1.000000000
4669, 30.360000000, 19.000000000, 1.000000000
4670, 31.740000000, 19.000000000, 1.000000000
4671, 33.120000000, 19.000000000, 1.000000000
4672, 34.500000000, 19.000000000, 1.000000000
4673, 35.880000000, 19.000000000, 1.000000000
4674, 37.260000000, 19.000000000, 1.000000000
4675, 38.640000000, 19.000000000, 1.000000000
4676, 40.020000000, 19.000000000, 1.000000000
4677, 41.400000000, 19.000000000, 1.000000000
4678, 42.780000000, 19.000000000, 1.000000000
4679, 44.160000000, 19.000000000, 1.000000000
4680, 45.540000000, 19.000000000, 1.000000000
4681, 46.920000000, 19.000000000, 1.000000000
4682, 48.300000000, 19.000000000, 1.000000000
4683, 49.680000000, 19.000000000, 1.000000000
4684, 51.060000000, 19.000000000, 1.000000000
4685, 52.440000000, 19.000000000, 1.000000000
4686, 53.820000000, 19.000000000, 1.000000000
4687, 55.200000000, 19.000000000, 1.000000000
4688, 56.580000000, 19.000000000, 1.000000000
4689, 57.960000000, 19.000000000, 1.000000000
4690, 59.340000000, 19.000000000, 1.000000000
4691, 60.720000000, 19.000000000, 1.000000000
4692, 62.100000000, 19.000000000, 1.000000000
4693, 63.480000000, 19.000000000, 1.000000000
4694, 64.860000000, 19.000000000, 1.000000000
4695, 66.240000000, 19.000000000, 1.000000000
4696, 67.620000000, 19.000000000, 1.000000000
4697, 69.000000000, 19.000000000, 1.000000000
4698, 70.380000000, 19.000000000, 1.000000000
4699, 71.760000000, 19.000000000, 1.000000000
4700, 73.140000000, 19.000000000, 1.000000000
4701, 74.520000000, 19.000000000, 1.000000000
4702, 75.900000000, 19.000000000, 1.000000000
4703, 77.280000000, 19.000000000, 1.000000000
4704, 78.660000000, 19.000000000, 1.000000000
4705, 80.040000000, 19.000000000, 1.000000000
4706, 81.420000000, 19.000000000, 1.000000000
4707, 82.800000000, 19.000000000, 1.000000000
4708, 84.180000000, 19.000000000, 1.000000000
4709, 85.560000000, 19.000000000, 1.000000000
4710, 86.940000000, 19.000000000, 1.000000000
4711, 88.320000000, 19.000000000, 1.000000000
4712, 89.700000000, 19.000000000, 1.000000000
4713, 91.080000000, 19.000000000, 1.000000000
4714, 92.460000000, 19.000000000, 1.000000000
4715, 93.840000000, 19.000000000, 1.000000000
4716, 95.220000000, 19.000000000, 1.000000000
4717, 96.600000000, 19.000000000, 1.000000000
4718, 97.980000000, 19.000000000, 1.000000000
4719, 99.360000000, 19.000000000, 1.000000000
4720, 100.740000000, 19.000000000, 1.000000000
4721, 102.120000000, 19.000000000, 1.000000000
4722, 103.500000000, 19.000000000, 1.000000000
4723, 104.880000000, 19.000000000, 1.000000000
4724, 106.260000000, 19.000000000, 1.000000000
4725, 107.640000000, 19.000000000, 1.000000000
4726, 109.020000000, 19.000000000, 1.000000000
4727, 110.400000000, 19.000000000, 1.000000000
4728, 111.780000000, 19.000000000, 1.000000000
4729, 113.160000000, 19.000000000, 1.000000000
4730, 114.540000000, 19.000000000, 1.000000000
4731, 115.920000000, 19.000000000, 1.000000000
4732, 117.300000000, 19.000000000, 1.000000000
4733, 118.680000000, 19.000000000, 1.000000000
4734, 120.060000000, 19.000000000, 1.000000000
4735, 121.440000000, 19.000000000, 1.000000000
4736, 122.820000000, 19.000000000, 1.000000000
4737, 124.200000000, 19.000000000, 1.000000000
4738, 125.580000000, 19.000000000, 1.000000000
4739, 126.960000000, 19.000000000, 1.000000000
4740, 128.340000000, 19.000000000, 1.000000000
4741, 129.720000000, 19.000000000, 1.000000000
4742, 131.100000000, 19.000000000, 1.000000000
4743, 132.480000000, 19.000000000, 1.000000000
4744, 133.860000000, 19.000000000, 1.000000000
4745, 135.240000000, 19.000000000, 1.000000000
4746, 136.620000000, 19.000000000, 1.000000000
4747, 138.000000000, 19.000000000, 1.000000000
4748, 0.000000000, 20.266666667, 1.000000000
4749, 1.380000000, 20.266666667, 1.000000000
4750, 2.760000000, 20.266666667, 1.000000000
4751, 4.140000000, 20.266666667, 1.000000000
4752, 5.520000000, 20.266666667, 1.000000000
4753, 6.900000000, 20.266666667, 1.000000000
4754, 8.280000000, 20.266666667, 1.000000000
4755, 9.660000000, 20.266666667, 1.000000000
4756, 11.040000000, 20.266666667, 1.000000000
4757, 12.420000000, 20.266666667, 1.000000000
4758, 13.800000000, 20.266666667, 1.000000000
4759, 15.180000000, 20.266666667, 1.000000000
4760, 16.560000000, 20.266666667, 1.000000000
4761, 17.940000000, 20.266666667, 1.000000000
4762, 19.320000000, 20.266666667, 1.000000000
4763, 20.700000000, 20.266666667, 1.000000000
4764, 22.080000000, 20.266666667, 1.000000000
4765, 23.460000000, 20.266666667, 1.000000000
4766, 24.840000000, 20.266666667, 1.000000000
4767, 26.220000000, 20.266666667, 1.000000000
4768, 27.600000000, 20.266666667, 1.000000000
4769, 28.980000000, 20.266666667, 1.000000000
4770, 30.360000000, 20.266666667, 1.000000000
4771, 31.740000000, 20.266666667, 1.000000000
4772, 33.120000000, 20.266666667, 1.000000000
4773, 34.500000000, 20.266666667, 1.000000000
4774, 35.880000000, 20.266666667, 1.000000000
4775, 37.260000000, 20.266666667, 1.000000000
4776, 38.640000000, 20.266666667, 1.000000000
4777, 40.020000000, 20.266666667, 1.000000000
4778, 41.400000000, 20.266666667, 1.000000000
4779, 42.780000000, 20.266666667, 1.000000000
4780, 44.160000000, 20.266666667, 1.000000000
4781, 45.540000000, 20.266666667, 1.000000000
4782, 46.920000000, 20.266666667, 1.000000000
4783, 48.300000000, 20.266666667, 1.000000000
4784, 49.680000000, 20.266666667, 1.000000000
4785, 51.060000000, 20.266666667, 1.000000000
4786, 52.440000000, 20.266666667, 1.000000000
4787, 53.820000000, 20.266666667, 1.000000000
4788, 55.200000000, 20.266666667, 1.000000000
4789, 56.580000000, 20.266666667, 1.000000000
4790, 57.960000000, 20.266666667, 1.000000000
4791, 59.340000000, 20.266666667, 1.000000000
4792, 60.720000000, 20.266666667, 1.000000000
4793, 62.100000000, 20.266666667, 1.000000000
4794, 63.480000000, 20.266666667, 1.000000000
4795, 64.860000000, 20.266666667, 1.000000000
4796, 66.240000000, 20.266666667, 1.000000000
4797, 67.620000000, 20.266666667, 1.000000000
4798, 69.000000000, 20.266666667, 1.000000000
4799, 70.380000000, 20.266666667, 1.000000000
4800, 71.760000000, 20.266666667, 1.000000000
4801, 73.140000000, 20.266666667, 1.000000000
4802, 74.520000000, 20.266666667, 1.000000000
4803, 75.900000000, 20.266666667, 1.000000000
4804, 77.280000000, 20.266666667, 1.000000000
4805, 78.660000000, 20.266666667, 1.000000000
4806, 80.040000000, 20.266666667, 1.000000000
4807, 81.420000000, 20.266666667, 1.000000000
4808, 82.800000000, 20.266666667, 1.000000000
4809, 84.180000000, 20.266666667, 1.000000000
4810, 85.560000000, 20.266666667, 1.000000000
4811, 86.940000000, 20.266666667, 1.000000000
4812, 88.320000000, 20.266666667, 1.000000000
4813, 89.700000000, 20.266666667, 1.000000000
4814, 91.080000000, 20.266666667, 1.000000000
4815, 92.460000000, 20.266666667, 1.000000000
4816, 93.840000000, 20.266666667, 1.000000000
4817, 95.220000000, 20.266666667, 1.000000000
4818, 96.600000000, 20.266666667, 1.000000000
4819, 97.980000000, 20.266666667, 1.000000000
4820, 99.360000000, 20.266666667, 1.000000000
4821, 100.740000000, 20.266666667, 1.000000000
4822, 102.120000000, 20.266666667, 1.000000000
4823, 103.500000000, 20.266666667, 1.000000000
4824, 104.880000000, 20.266666667, 1.000000000
4825, 106.260000000, 20.266666667, 1.000000000
4826, 107.640000000, 20.266666667, 1.000000000
4827, 109.020000000, 20.266666667, 1.000000000
4828, 110.400000000, 20.266666667, 1.000000000
4829, 111.780000000, 20.266666667, 1.000000000
4830, 113.160000000, 20.266666667, 1.000000000
4831, 114.540000000, 20.266666667, 1.000000000
4832, 115.920000000, 20.266666667, 1.000000000
4833, 117.300000000, 20.266666667, 1.000000000
4834, 118.680000000, 20.266666667, 1.000000000
4835, 120.060000000, 20.266666667, 1.000000000
4836, 121.440000000, 20.266666667, 1.000000000
4837, 122.820000000, 20.266666667, 1.000000000
4838, 124.200000000, 20.266666667, 1.000000000
4839, 125.580000000, 20.266666667, 1.000000000
4840, 126.960000000, 20.266666667, 1.000000000
4841, 128.340000000, 20.266666667, 1.000000000
4842, 129.720000000, 20.266666667, 1.000000000
4843, 131.100000000, 20.266666667, 1.000000000
4844, 132.480000000, 20.266666667, 1.000000000
4845, 133.860000000, 20.266666667, 1.000000000
4846, 135.240000000, 20.266666667, 1.000000000
4847, 136.620000000, 20.266666667, 1.000000000
4848, 138.000000000, 20.266666667, 1.000000000
4849, 0.000000000, 21.533333333, 1.000000000
4850, 1.380000000, 21.533333333, 1.000000000
4851, 2.760000000, 21.533333333, 1.000000000
4852, 4.140000000, 21.533333333, 1.000000000
4853, 5.520000000, 21.533333333, 1.000000000
4854, 6.900000000, 21.533333333, 1.000000000
4855, 8.280000000, 21.533333333, 1.000000000
4856, 9.660000000, 21.533333333, 1.000000000
4857, 11.040000000, 21.533333333, 1.000000000
4858, 12.420000000, 21.533333333, 1.000000000
4859, 13.800000000, 21.533333333, 1.000000000
4860, 15.180000000, 21.533333333, 1.000000000
4861, 16.560000000, 21.533333333, 1.000000000
4862, 17.940000000, 21.533333333, 1.000000000
4863, 19.320000000, 21.533333333, 1.000000000
4864, 20.700000000, 21.533333333, 1.000000000
4865, 22.080000000, 21.533333333, 1.000000000
4866, 23.460000000, 21.533333333, 1.000000000
4867, 24.840000000, 21.533333333, 1.000000000
4868, 26.220000000, 21.533333333, 1.000000000
4869, 27.600000000, 21.533333333, 1.000000000
4870, 28.980000000, 21.533333333, 1.000000000
4871, 30.360000000, 21.533333333, 1.000000000
4872, 31.740000000, 21.533333333, 1.000000000
4873, 33.120000000, 21.533333333, 1.000000000
4874, 34.500000000, 21.533333333, 1.000000000
4875, 35.880000000, 21.533333333, 1.000000000
4876, 37.260000000, 21.533333333, 1.000000000
4877, 38.640000000, 21.533333333, 1.000000000
4878, 40.020000000, 21.533333333, 1.000000000
4879, 41.400000000, 21.533333333, 1.000000000
4880, 42.780000000, 21.533333333, 1.000000000
4881, 44.160000000, 21.533333333, 1.000000000
4882, 45.540000000, 21.533333333, 1.000000000
4883, 46.920000000, 21.533333333, 1.000000000
4884, 48.300000000, 21.533333333, 1.000000000
4885, 49.680000000, 21.533333333, 1.000000000
4886, 51.060000000, 21.533333333, 1.000000000
4887, 52.440000000, 21.533333333, 1.000000000
4888, 53.820000000, 21.533333333, 1.000000000
4889, 55.200000000, 21.533333333, 1.000000000
4890, 56.580000000, 21.533333333, 1.000000000
4891, 57.960000000, 21.533333333, 1.000000000
4892, 59.340000000, 21.533333333, 1.000000000
4893, 60.720000000, 21.533333333, 1.000000000
4894, 62.100000000, 21.533333333, 1.000000000
4895, 63.480000000, 21.533333333, 1.000000000
4896, 64.860000000, 21.533333333, 1.000000000
4897, 66.240000000, 21.533333333, 1.000000000
4898, 67.620000000, 21.533333333, 1.000000000
4899, 69.000000000, 21.533333333, 1.000000000
4900, 70.380000000, 21.533333333, 1.000000000
4901, 71.760000000, 21.533333333, 1.000000000
4902, 73.140000000, 21.533333333, 1.000000000
4903, 74.520000000, 21.533333333, 1.000000000
4904, 75.900000000, 21.533333333, 1.000000000
4905, 77.280000000, 21.533333333, 1.000000000
4906, 78.660000000, 21.533333333, 1.000000000
4907, 80.040000000, 21.533333333, 1.000000000
4908, 81.420000000, 21.533333333, 1.000000000
4909, 82.800000000, 21.533333333, 1.000000000
4910, 84.180000000, 21.533333333, 1.000000000
4911, 85.560000000, 21.533333333, 1.000000000
4912, 86.940000000, 21.533333333, 1.000000000
4913, 88.320000000, 21.533333333, 1.000000000
4914, 89.700000000, 21.533333333, 1.000000000
4915, 91.080000000, 21.533333333, 1.000000000
4916, 92.460000000, 21.533333333, 1.000000000
4917, 93.840000000, 21.533333333, 1.000000000
4918, 95.220000000, 21.533333333, 1.000000000
4919, 96.600000000, 21.533333333, 1.000000000
4920, 97.980000000, 21.533333333, 1.000000000
4921, 99.360000000, 21.533333333, 1.000000000
4922, 100.740000000, 21.533333333, 1.000000000
4923, 102.120000000, 21.533333333, 1.000000000
4924, 103.500000000, 21.533333333, 1.000000000
4925, 104.880000000, 21.533333333, 1.000000000
4926, 106.260000000, 21.533333333, 1.000000000
4927, 107.640000000, 21.533333333, 1.000000000
4928, 109.020000000, 21.533333333, 1.000000000
4929, 110.400000000, 21.533333333, 1.000000000
4930, 111.780000000, 21.533333333, 1.000000000
4931, 113.160000000, 21.533333333, 1.000000000
4932, 114.540000000, 21.533333333, 1.000000000
4933, 115.920000000, 21.533333333, 1.000000000
4934, 117.300000000, 21.533333333, 1.000000000
4935, 118.680000000, 21.533333333, 1.000000000
4936, 120.060000000, 21.533333333, 1.000000000
4937, 121.440000000, 21.533333333, 1.000000000
4938, 122.820000000, 21.533333333, 1.000000000
4939, 124.200000000, 21.533333333, 1.000000000
4940, 125.580000000, 21.533333333, 1.000000000
4941, 126.960000000, 21.533333333, 1.000000000
4942, 128.340000000, 21.533333333, 1.000000000
4943, 129.720000000, 21.533333333, 1.000000000
4944, 131.100000000, 21.533333333, 1.000000000
4945, 132.480000000, 21.533333333, 1.000000000
4946, 133.860000000, 21.533333333, 1.000000000
4947, 135.240000000, 21.533333333, 1.000000000
4948, 136.620000000, 21.533333333, 1.000000000
4949, 138.000000000, 21.533333333, 1.000000000
4950, 0.000000000, 22.800000000, 1.000000000
4951, 1.380000000, 22.800000000, 1.000000000
4952, 2.760000000, 22.800000000, 1.000000000
4953, 4.140000000, 22.800000000, 1.000000000
4954, 5.520000000, 22.800000000, 1.000000000
4955, 6.900000000, 22.800000000, 1.000000000
4956, 8.280000000, 22.800000000, 1.000000000
4957, 9.660000000, 22.800000000, 1.000000000
4958, 11.040000000, 22.800000000, 1.000000000
4959, 12.420000000, 22.800000000, 1.000000000
4960, 13.800000000, 22.800000000, 1.000000000
4961, 15.180000000, 22.800000000, 1.000000000
4962, 16.560000000, 22.800000000, 1.000000000
4963, 17.940000000, 22.800000000, 1.000000000
4964, 19.320000000, 22.800000000, 1.000000000
4965, 20.700000000, 22.800000000, 1.000000000
4966, 22.080000000, 22.800000000, 1.000000000
4967, 23.460000000, 22.800000000, 1.000000000
4968, 24.840000000, 22.800000000, 1.000000000
4969, 26.220000000, 22.800000000, 1.000000000
4970, 27.600000000, 22.800000000, 1.000000000
4971, 28.980000000, 22.800000000, 1.000000000
4972, 30.360000000, 22.800000000, 1.000000000
4973, 31.740000000, 22.800000000, 1.000000000
4974, 33.120000000, 22.800000000, 1.000000000
4975, 34.500000000, 22.800000000, 1.000000000
4976, 35.880000000, 22.800000000, 1.000000000
4977, 37.260000000, 22.800000000, 1.000000000
4978, 38.640000000, 22.800000000, 1.000000000
4979, 40.020000000, 22.800000000, 1.000000000
4980, 41.400000000, 22.800000000, 1.000000000
4981, 42.780000000, 22.800000000, 1.000000000
4982, 44.160000000, 22.800000000, 1.000000000
4983, 45.540000000, 22.800000000, 1.000000000
4984, 46.920000000, 22.800000000, 1.000000000
4985, 48.300000000, 22.800000000, 1.000000000
4986, 49.680000000, 22.800000000, 1.000000000
4987, 51.060000000, 22.800000000, 1.000000000
4988, 52.440000000, 22.800000000, 1.000000000
4989, 53.820000000, 22.800000000, 1.000000000
4990, 55.200000000, 22.800000000, 1.000000000
4991, 56.580000000, 22.800000000, 1.000000000
4992, 57.960000000, 22.800000000, 1.000000000
4993, 59.340000000, 22.800000000, 1.000000000
4994, 60.720000000, 22.800000000, 1.000000000
4995, 62.100000000, 22.800000000, 1.000000000
4996, 63.480000000, 22.800000000, 1.000000000
4997, 64.860000000, 22.800000000, 1.000000000
4998, 66.240000000, 22.800000000, 1.000000000
4999, 67.620000000, 22.800000000, 1.000000000
5000, 69.000000000, 22.800000000, 1.000000000
5001, 70.380000000, 22.800000000, 1.000000000
5002, 71.760000000, 22.800000000, 1.000000000
5003, 73.140000000, 22.800000000, 1.000000000
5004, 74.520000000, 22.800000000, 1.000000000
5005, 75.900000000, 22.800000000, 1.000000000
5006, 77.280000000, 22.800000000, 1.000000000
5007, 78.660000000, 22.800000000, 1.000000000
5008, 80.040000000, 22.800000000, 1.000000000
5009, 81.420000000, 22.800000000, 1.000000000
5010, 82.800000000, 22.800000000, 1.000000000
5011, 84.180000000, 22.800000000, 1.000000000
5012, 85.560000000, 22.800000000, 1.000000000
5013, 86.940000000, 22.800000000, 1.000000000
5014, 88.320000000, 22.800000000, 1.000000000
5015, 89.700000000, 22.800000000, 1.000000000
5016, 91.080000000, 22.800000000, 1.000000000
5017, 92.460000000, 22.800000000, 1.000000000
5018, 93.840000000, 22.800000000, 1.000000000
5019, 95.220000000, 22.800000000, 1.000000000
5020, 96.600000000, 22.800000000, 1.000000000
5021, 97.980000000, 22.800000000, 1.000000000
5022, 99.360000000, 22.800000000, 1.000000000
5023, 100.740000000, 22.800000000, 1.000000000
5024, 102.120000000, 22.800000000, 1.000000000
5025, 103.500000000, 22.800000000, 1.000000000
5026, 104.880000000, 22.800000000, 1.000000000
5027, 106.260000000, 22.800000000, 1.000000000
5028, 107.640000000, 22.800000000, 1.000000000
5029, 109.020000000, 22.800000000, 1.000000000
5030, 110.400000000, 22.800000000, 1.000000000
5031, 111.780000000, 22.800000000, 1.000000000
5032, 113.160000000, 22.800000000, 1.000000000
5033, 114.540000000, 22.800000000, 1.000000000
5034, 115.920000000, 22.800000000, 1.000000000
5035, 117.300000000, 22.800000000, 1.000000000
5036, 118.680000000, 22.800000000, 1.000000000
5037, 120.060000000, 22.800000000, 1.000000000
5038, 121.440000000, 22.800000000, 1.000000000
5039, 122.820000000, 22.800000000, 1.000000000
5040, 124.200000000, 22.800000000, 1.000000000
5041, 125.580000000, 22.800000000, 1.000000000
5042, 126.960000000, 22.800000000, 1.000000000
5043, 128.340000000, 22.800000000, 1.000000000
5044, 129.720000000, 22.800000000, 1.000000000
5045, 131.100000000, 22.800000000, 1.000000000
5046, 132.480000000, 22.800000000, 1.000000000
5047, 133.860000000, 22.800000000, 1.000000000
5048, 135.240000000, 22.800000000, 1.000000000
5049, 136.620000000, 22.800000000, 1.000000000
5050, 138.000000000, 22.800000000, 1.000000000
5051, 0.000000000, 24.066666667, 1.000000000
5052, 1.380000000, 24.066666667, 1.000000000
5053, 2.760000000, 24.066666667, 1.000000000
5054, 4.140000000, 24.066666667, 1.000000000
5055, 5.520000000, 24.066666667, 1.000000000
5056, 6.900000000, 24.066666667, 1.000000000
5057, 8.280000000, 24.066666667, 1.000000000
5058, 9.660000000, 24.066666667, 1.000000000
5059, 11.040000000, 24.066666667, 1.000000000
5060, 12.420000000, 24.066666667, 1.000000000
5061, 13.800000000, 24.066666667, 1.000000000
5062, 15.180000000, 24.066666667, 1.000000000
5063, 16.560000000, 24.066666667, 1.000000000
5064, 17.940000000, 24.066666667, 1.000000000
5065, 19.320000000, 24.066666667, 1.000000000
5066, 20.700000000, 24.066666667, 1.000000000
5067, 22.080000000, 24.066666667, 1.000000000
5068, 23.460000000, 24.066666667, 1.000000000
5069, 24.840000000, 24.066666667, 1.000000000
5070, 26.220000000, 24.066666667, 1.000000000
5071, 27.600000000, 24.066666667, 1.000000000
5072, 28.980000000, 24.066666667, 1.000000000
5073, 30.360000000, 24.066666667, 1.000000000
5074, 31.740000000, 24.066666667, 1.000000000
5075, 33.120000000, 24.066666667, 1.000000000
5076, 34.500000000, 24.066666667, 1.000000000
5077, 35.880000000, 24.066666667, 1.000000000
5078, 37.260000000, 24.066666667, 1.000000000
5079, 38.640000000, 24.066666667, 1.000000000
5080, 40.020000000, 24.066666667, 1.000000000
5081, 41.400000000, 24.066666667, 1.000000000
5082, 42.780000000, 24.066666667, 1.000000000
5083, 44.160000000, 24.066666667, 1.000000000
5084, 45.540000000, 24.066666667, 1.000000000
5085, 46.920000000, 24.066666667, 1.000000000
5086, 48.300000000, 24.066666667, 1.000000000
5087, 49.680000000, 24.066666667, 1.000000000
5088, 51.060000000, 24.066666667, 1.000000000
5089, 52.440000000, 24.066666667, 1.000000000
5090, 53.820000000, 24.066666667, 1.000000000
5091, 55.200000000, 24.066666667, 1.000000000
5092, 56.580000000, 24.066666667, 1.000000000
5093, 57.960000000, 24.066666667, 1.000000000
5094, 59.340000000, 24.066666667, 1.000000000
5095, 60.720000000, 24.066666667, 1.000000000
5096, 62.100000000, 24.066666667, 1.000000000
5097, 63.480000000, 24.066666667, 1.000000000
5098, 64.860000000, 24.066666667, 1.000000000
5099, 66.240000000, 24.066666667, 1.000000000
5100, 67.620000000, 24.066666667, 1.000000000
5101, 69.000000000, 24.066666667, 1.000000000
5102, 70.380000000, 24.066666667, 1.000000000
5103, 71.760000000, 24.066666667, 1.000000000
5104, 73.140000000, 24.066666667, 1.000000000
5105, 74.520000000, 24.066666667, 1.000000000
5106, 75.900000000, 24.066666667, 1.000000000
5107, 77.280000000, 24.066666667, 1.000000000
5108, 78.660000000, 24.066666667, 1.000000000
5109, 80.040000000, 24.066666667, 1.000000000
5110, 81.420000000, 24.066666667, 1.000000000
5111, 82.800000000, 24.066666667, 1.000000000
5112, 84.180000000, 24.066666667, 1.000000000
5113, 85.560000000, 24.066666667, 1.000000000
5114, 86.940000000, 24.066666667, 1.000000000
5115, 88.320000000, 24.066666667, 1.000000000
5116, 89.700000000, 24.066666667, 1.000000000
5117, 91.080000000, 24.066666667, 1.000000000
5118, 92.460000000, 24.066666667, 1.000000000
5119, 93.840000000, 24.066666667, 1.000000000
5120, 95.220000000, 24.066666667, 1.000000000
5121, 96.600000000, 24.066666667, 1.000000000
5122, 97.980000000, 24.066666667, 1.000000000
5123, 99.360000000, 24.066666667, 1.000000000
5124, 100.740000000, 24.066666667, 1.000000000
5125, 102.120000000, 24.066666667, 1.000000000
5126, 103.500000000, 24.066666667, 1.000000000
5127, 104.880000000, 24.066666667, 1.000000000
5128, 106.260000000, 24.066666667, 1.000000000
5129, 107.640000000, 24.066666667, 1.000000000
5130, 109.020000000, 24.066666667, 1.000000000
5131, 110.400000000, 24.066666667, 1.000000000
5132, 111.780000000, 24.066666667, 1.000000000
5133, 113.160000000, 24.066666667, 1.000000000
5134, 114.540000000, 24.066666667, 1.000000000
5135, 115.920000000, 24.066666667, 1.000000000
5136, 117.300000000, 24.066666667, 1.000000000
5137, 118.680000000, 24.066666667, 1.000000000
5138, 120.060000000, 24.066666667, 1.000000000
5139, 121.440000000, 24.066666667, 1.000000000
5140, 122.820000000, 24.066666667, 1.000000000
5141, 124.200000000, 24.066666667, 1.000000000
5142, 125.580000000, 24.066666667, 1.000000000
5143, 126.960000000, 24.066666667, 1.000000000
5144, 128.340000000, 24.066666667, 1.000000000
5145, 129.720000000, 24.066666667, 1.000000000
5146, 131.100000000, 24.066666667, 1.000000000
5147, 132.480000000, 24.066666667, 1.000000000
5148, 133.860000000, 24.066666667, 1.000000000
5149, 135.240000000, 24.066666667, 1.000000000
5150, 136.620000000, 24.066666667, 1.000000000
5151, 138.000000000, 24.066666667, 1.000000000
5152, 0.000000000, 25.333333333, 1.000000000
5153, 1.380000000, 25.333333333, 1.000000000
5154, 2.760000000, 25.333333333, 1.000000000
5155, 4.140000000, 25.333333333, 1.000000000
5156, 5.520000000, 25.333333333, 1.000000000
5157, 6.900000000, 25.333333333, 1.000000000
5158, 8.280000000, 25.333333333, 1.000000000
5159, 9.660000000, 25.333333333, 1.000000000
5160, 11.040000000, 25.333333333, 1.000000000
5161, 12.420000000, 25.333333333, 1.000000000
5162, 13.800000000, 25.333333333, 1.000000000
5163, 15.180000000, 25.333333333, 1.000000000
5164, 16.560000000, 25.333333333, 1.000000000
5165, 17.940000000, 25.333333333, 1.000000000
5166, 19.320000000, 25.333333333, 1.000000000
5167, 20.700000000, 25.333333333, 1.000000000
5168, 22.080000000, 25.333333333, 1.000000000
5169, 23.460000000, 25.333333333, 1.000000000
5170, 24.840000000, 25.333333333, 1.000000000
5171, 26.220000000, 25.333333333, 1.000000000
5172, 27.600000000, 25.333333333, 1.000000000
5173, 28.980000000, 25.333333333, 1.000000000
5174, 30.360000000, 25.333333333, 1.000000000
5175, 31.740000000, 25.333333333, 1.000000000
5176, 33.120000000, 25.333333333, 1.000000000
5177, 34.500000000, 25.333333333, 1.000000000
5178, 35.880000000, 25.333333333, 1.000000000
5179, 37.260000000, 25.333333333, 1.000000000
5180, 38.640000000, 25.333333333, 1.000000000
5181, 40.020000000, 25.333333333, 1.000000000
5182, 41.400000000, 25.333333333, 1.000000000
5183, 42.780000000, 25.333333333, 1.000000000
5184, 44.160000000, 25.333333333, 1.000000000
5185, 45.540000000, 25.333333333, 1.000000000
5186, 46.920000000, 25.333333333, 1.000000000
5187, 48.300000000, 25.333333333, 1.000000000
5188, 49.680000000, 25.333333333, 1.000000000
5189, 51.060000000, 25.333333333, 1.000000000
5190, 52.440000000, 25.333333333, 1.000000000
5191, 53.820000000, 25.333333333, 1.000000000
5192, 55.200000000, 25.333333333, 1.000000000
5193, 56.580000000, 25.333333333, 1.000000000
5194, 57.960000000, 25.333333333, 1.000000000
5195, 59.340000000, 25.333333333, 1.000000000
5196, 60.720000000, 25.333333333, 1.000000000
5197, 62.100000000, 25.333333333, 1.000000000
5198, 63.480000000, 25.333333333, 1.000000000
5199, 64.860000000, 25.333333333, 1.000000000
5200, 66.240000000, 25.333333333, 1.000000000
5201, 67.620000000, 25.333333333, 1.000000000
5202, 69.000000000, 25.333333333, 1.000000000
5203, 70.380000000, 25.333333333, 1.000000000
5204, 71.760000000, 25.333333333, 1.000000000
5205, 73.140000000, 25.333333333, 1.000000000
5206, 74.520000000, 25.333333333, 1.000000000
5207, 75.900000000, 25.333333333, 1.000000000
5208, 77.280000000, 25.333333333, 1.000000000
5209, 78.660000000, 25.333333333, 1.000000000
5210, 80.040000000, 25.333333333, 1.000000000
5211, 81.420000000, 25.333333333, 1.000000000
5212, 82.800000000, 25.333333333, 1.000000000
5213, 84.180000000, 25.333333333, 1.000000000
5214, 85.560000000, 25.333333333, 1.000000000
5215, 86.940000000, 25.333333333, 1.000000000
5216, 88.320000000, 25.333333333, 1.000000000
5217, 89.700000000, 25.333333333, 1.000000000
5218, 91.080000000, 25.333333333, 1.000000000
5219, 92.460000000, 25.333333333, 1.000000000
5220, 93.840000000, 25.333333333, 1.000000000
5221, 95.220000000, 25.333333333, 1.000000000
5222, 96.600000000, 25.333333333, 1.000000000
5223, 97.980000000, 25.333333333, 1.000000000
5224, 99.360000000, 25.333333333, 1.000000000
5225, 100.740000000, 25.333333333, 1.000000000
5226, 102.120000000, 25.333333333, 1.000000000
5227, 103.500000000, 25.333333333, 1.000000000
5228, 104.880000000, 25.333333333, 1.000000000
5229, 106.260000000, 25.333333333, 1.000000000
5230, 107.640000000, 25.333333333, 1.000000000
5231, 109.020000000, 25.333333333, 1.000000000
5232, 110.400000000, 25.333333333, 1.000000000
5233, 111.780000000, 25.333333333, 1.000000000
5234, 113.160000000, 25.333333333, 1.000000000
5235, 114.540000000, 25.333333333, 1.000000000
5236, 115.920000000, 25.333333333, 1.000000000
5237, 117.300000000, 25.333333333, 1.000000000
5238, 118.680000000, 25.333333333, 1.000000000
5239, 120.060000000, 25.333333333, 1.000000000
5240, 121.440000000, 25.333333333, 1.000000000
5241, 122.820000000, 25.333333333, 1.000000000
5242, 124.200000000, 25.333333333, 1.000000000
5243, 125.580000000, 25.333333333, 1.000000000
5244, 126.960000000, 25.333333333, 1.000000000
5245, 128.340000000, 25.333333333, 1.000000000
5246, 129.720000000, 25.333333333, 1.000000000
5247, 131.100000000, 25.333333333, 1.000000000
5248, 132.480000000, 25.333333333, 1.000000000
5249, 133.860000000, 25.333333333, 1.000000000
5250, 135.240000000, 25.333333333, 1.000000000
5251, 136.620000000, 25.333333333, 1.000000000
5252, 138.000000000, 25.333333333, 1.000000000
5253, 0.000000000, 26.600000000, 1.000000000
5254, 1.380000000, 26.600000000, 1.000000000
5255, 2.760000000, 26.600000000, 1.000000000
5256, 4.140000000, 26.600000000, 1.000000000
5257, 5.520000000, 26.600000000, 1.000000000
5258, 6.900000000, 26.600000000, 1.000000000
5259, 8.280000000, 26.600000000, 1.000000000
5260, 9.660000000, 26.600000000, 1.000000000
5261, 11.040000000, 26.600000000, 1.000000000
5262, 12.420000000, 26.600000000, 1.000000000
5263, 13.800000000, 26.600000000, 1.000000000
5264, 15.180000000, 26.600000000, 1.000000000
5265, 16.560000000, 26.600000000, 1.000000000
5266, 17.940000000, 26.600000000, 1.000000000
5267, 19.320000000, 26.600000000, 1.000000000
5268, 20.700000000, 26.600000000, 1.000000000
5269, 22.080000000, 26.600000000, 1.000000000
5270, 23.460000000, 26.600000000, 1.000000000
5271, 24.840000000, 26.600000000, 1.000000000
5272, 26.220000000, 26.600000000, 1.000000000
5273, 27.600000000, 26.600000000, 1.000000000
5274, 28.980000000, 26.600000000, 1.000000000
5275, 30.360000000, 26.600000000, 1.000000000
5276, 31.740000000, 26.600000000, 1.000000000
5277, 33.120000000, 26.600000000, 1.000000000
5278, 34.500000000, 26.600000000, 1.000000000
5279, 35.880000000, 26.600000000, 1.000000000
5280, 37.260000000, 26.600000000, 1.000000000
5281, 38.640000000, 26.600000000, 1.000000000
5282, 40.020000000, 26.600000000, 1.000000000
5283, 41.400000000, 26.600000000, 1.000000000
5284, 42.780000000, 26.600000000, 1.000000000
5285, 44.160000000, 26.600000000, 1.000000000
5286, 45.540000000, 26.600000000, 1.000000000
5287, 46.920000000, 26.600000000, 1.000000000
5288, 48.300000000, 26.600000000, 1.000000000
5289, 49.680000000, 26.600000000, 1.000000000
5290, 51.060000000, 26.600000000, 1.000000000
5291, 52.440000000, 26.600000000, 1.000000000
5292, 53.820000000, 26.600000000, 1.000000000
5293, 55.200000000, 26.600000000, 1.000000000
5294, 56.580000000, 26.600000000, 1.000000000
5295, 57.960000000, 26.600000000, 1.000000000
5296, 59.340000000, 26.600000000, 1.000000000
5297, 60.720000000, 26.600000000, 1.000000000
5298, 62.100000000, 26.600000000, 1.000000000
5299, 63.480000000, 26.600000000, 1.000000000
5300, 64.860000000, 26.600000000, 1.000000000
5301, 66.240000000, 26.600000000, 1.000000000
5302, 67.620000000, 26.600000000, 1.000000000
5303, 69.000000000, 26.600000000, 1.000000000
5304, 70.380000000, 26.600000000, 1.000000000
5305, 71.760000000, 26.600000000, 1.000000000
5306, 73.140000000, 26.600000000, 1.000000000
5307, 74.520000000, 26.600000000, 1.000000000
5308, 75.900000000, 26.600000000, 1.000000000
5309, 77.280000000, 26.600000000, 1.000000000
5310, 78.660000000, 26.600000000, 1.000000000
5311, 80.040000000, 26.600000000, 1.000000000
5312, 81.420000000, 26.600000000, 1.000000000
5313, 82.800000000, 26.600000000, 1.000000000
5314, 84.180000000, 26.600000000, 1.000000000
5315, 85.560000000, 26.600000000, 1.000000000
5316, 86.940000000, 26.600000000, 1.000000000
5317, 88.320000000, 26.600000000, 1.000000000
5318, 89.700000000, 26.600000000, 1.000000000
5319, 91.080000000, 26.600000000, 1.000000000
5320, 92.460000000, 26.600000000, 1.000000000
5321, 93.840000000, 26.600000000, 1.000000000
5322, 95.220000000, 26.600000000, 1.000000000
5323, 96.600000000, 26.600000000, 1.000000000
5324, 97.980000000, 26.600000000, 1.000000000
5325, 99.360000000, 26.600000000, 1.000000000
5326, 100.740000000, 26.600000000, 1.000000000
5327, 102.120000000, 26.600000000, 1.000000000
5328, 103.500000000, 26.600000000, 1.000000000
5329, 104.880000000, 26.600000000, 1.000000000
5330, 106.260000000, 26.600000000, 1.000000000
5331, 107.640000000, 26.600000000, 1.000000000
5332, 109.020000000, 26.600000000, 1.000000000
5333, 110.400000000, 26.600000000, 1.000000000
5334, 111.780000000, 26.600000000, 1.000000000
5335, 113.160000000, 26.600000000, 1.000000000
5336, 114.540000000, 26.600000000, 1.000000000
5337, 115.920000000, 26.600000000, 1.000000000
5338, 117.300000000, 26.600000000, 1.000000000
5339, 118.680000000, 26.600000000, 1.000000000
5340, 120.060000000, 26.600000000, 1.000000000
5341, 121.440000000, 26.600000000, 1.000000000
5342, 122.820000000, 26.600000000, 1.000000000
5343, 124.200000000, 26.600000000, 1.000000000
5344, 125.580000000, 26.600000000, 1.000000000
5345, 126.960000000, 26.600000000, 1.000000000
5346, 128.340000000, 26.600000000, 1.000000000
5347, 129.720000000, 26.600000000, 1.000000000
5348, 131.100000000, 26.600000000, 1.000000000
5349, 132.480000000, 26.600000000, 1.000000000
5350, 133.860000000, 26.600000000, 1.000000000
5351, 135.240000000, 26.600000000, 1.000000000
5352, 136.620000000, 26.600000000, 1.000000000
5353, 138.000000000, 26.600000000, 1.000000000
5354, 0.000000000, 27.866666667, 1.000000000
5355, 1.380000000, 27.866666667, 1.000000000
5356, 2.760000000, 27.866666667, 1.000000000
5357, 4.140000000, 27.866666667, 1.000000000
5358, 5.520000000, 27.866666667, 1.000000000
5359, 6.900000000, 27.866666667, 1.000000000
5360, 8.280000000, 27.866666667, 1.000000000
5361, 9.660000000, 27.866666667, 1.000000000
5362, 11.040000000, 27.866666667, 1.000000000
5363, 12.420000000, 27.866666667, 1.000000000
5364, 13.800000000, 27.866666667, 1.000000000
5365, 15.180000000, 27.866666667, 1.000000000
5366, 16.560000000, 27.866666667, 1.000000000
5367, 17.940000000, 27.866666667, 1.000000000
5368, 19.320000000, 27.866666667, 1.000000000
5369, 20.700000000, 27.866666667, 1.000000000
5370, 22.080000000, 27.866666667, 1.000000000
5371, 23.460000000, 27.866666667, 1.000000000
5372, 24.840000000, 27.866666667, 1.000000000
5373, 26.220000000, 27.866666667, 1.000000000
5374, 27.600000000, 27.866666667, 1.000000000
5375, 28.980000000, 27.866666667, 1.000000000
5376, 30.360000000, 27.866666667, 1.000000000
5377, 31.740000000, 27.866666667, 1.000000000
5378, 33.120000000, 27.866666667, 1.000000000
5379, 34.500000000, 27.866666667, 1.000000000
5380, 35.880000000, 27.866666667, 1.000000000
5381, 37.260000000, 27.866666667, 1.000000000
5382, 38.640000000, 27.866666667, 1.000000000
5383, 40.020000000, 27.866666667, 1.000000000
5384, 41.400000000, 27.866666667, 1.000000000
5385, 42.780000000, 27.866666667, 1.000000000
5386, 44.160000000, 27.866666667, 1.000000000
5387, 45.540000000, 27.866666667, 1.000000000
5388, 46.920000000, 27.866666667, 1.000000000
5389, 48.300000000, 27.866666667, 1.000000000
5390, 49.680000000, 27.866666667, 1.000000000
5391, 51.060000000, 27.866666667, 1.000000000
5392, 52.440000000, 27.866666667, 1.000000000
5393, 53.820000000, 27.866666667, 1.000000000
5394, 55.200000000, 27.866666667, 1.000000000
5395, 56.580000000, 27.866666667, 1.000000000
5396, 57.960000000, 27.866666667, 1.000000000
5397, 59.340000000, 27.866666667, 1.000000000
5398, 60.720000000, 27.866666667, 1.000000000
5399, 62.100000000, 27.866666667, 1.000000000
5400, 63.480000000, 27.866666667, 1.000000000
5401, 64.860000000, 27.866666667, 1.000000000
5402, 66.240000000, 27.866666667, 1.000000000
5403, 67.620000000, 27.866666667, 1.000000000
5404, 69.000000000, 27.866666667, 1.000000000
5405, 70.380000000, 27.866666667, 1.000000000
5406, 71.760000000, 27.866666667, 1.000000000
5407, 73.140000000, 27.866666667, 1.000000000
5408, 74.520000000, 27.866666667, 1.000000000
5409, 75.900000000, 27.866666667, 1.000000000
5410, 77.280000000, 27.866666667, 1.000000000
5411, 78.660000000, 27.866666667, 1.000000000
5412, 80.040000000, 27.866666667, 1.000000000
5413, 81.420000000, 27.866666667, 1.000000000
5414, 82.800000000, 27.866666667, 1.000000000
5415, 84.180000000, 27.866666667, 1.000000000
5416, 85.560000000, 27.866666667, 1.000000000
5417, 86.940000000, 27.866666667, 1.000000000
5418, 88.320000000, 27.866666667, 1.000000000
5419, 89.700000000, 27.866666667, 1.000000000
5420, 91.080000000, 27.866666667, 1.000000000
5421, 92.460000000, 27.866666667, 1.000000000
5422, 93.840000000, 27.866666667, 1.000000000
5423, 95.220000000, 27.866666667, 1.000000000
5424, 96.600000000, 27.866666667, 1.000000000
5425, 97.980000000, 27.866666667, 1.000000000
5426, 99.360000000, 27.866666667, 1.000000000
5427, 100.740000000, 27.866666667, 1.000000000
5428, 102.120000000, 27.866666667, 1.000000000
5429, 103.500000000, 27.866666667, 1.000000000
5430, 104.880000000, 27.866666667, 1.000000000
5431, 106.260000000, 27.866666667, 1.000000000
5432, 107.640000000, 27.866666667, 1.000000000
5433, 109.020000000, 27.866666667, 1.000000000
5434, 110.400000000, 27.866666667, 1.000000000
5435, 111.780000000, 27.866666667, 1.000000000
5436, 113.160000000, 27.866666667, 1.000000000
5437, 114.540000000, 27.866666667, 1.000000000
5438, 115.920000000, 27.866666667, 1.000000000
5439, 117.300000000, 27.866666667, 1.000000000
5440, 118.680000000, 27.866666667, 1.000000000
5441, 120.060000000, 27.866666667, 1.000000000
5442, 121.440000000, 27.866666667, 1.000000000
5443, 122.820000000, 27.866666667, 1.000000000
5444, 124.200000000, 27.866666667, 1.000000000
5445, 125.580000000, 27.866666667, 1.000000000
5446, 126.960000000, 27.866666667, 1.000000000
5447, 128.340000000, 27.866666667, 1.000000000
5448, 129.720000000, 27.866666667, 1.000000000
5449, 131.100000000, 27.866666667, 1.000000000
5450, 132.480000000, 27.866666667, 1.000000000
5451, 133.860000000, 27.866666667, 1.000000000
5452, 135.240000000, 27.866666667, 1.000000000
5453, 136.620000000, 27.866666667, 1.000000000
5454, 138.000000000, 27.866666667, 1.000000000
5455, 0.000000000, 29.133333333, 1.000000000
5456, 1.380000000, 29.133333333, 1.000000000
5457, 2.760000000, 29.133333333, 1.000000000
5458, 4.140000000, 29.133333333, 1.000000000
5459, 5.520000000, 29.133333333, 1.000000000
5460, 6.900000000, 29.133333333, 1.000000000
5461, 8.280000000, 29.133333333, 1.000000000
5462, 9.660000000, 29.133333333, 1.000000000
5463, 11.040000000, 29.133333333, 1.000000000
5464, 12.420000000, 29.133333333, 1.000000000
5465, 13.800000000, 29.133333333, 1.000000000
5466, 15.180000000, 29.133333333, 1.000000000
5467, 16.560000000, 29.133333333, 1.000000000
5468, 17.940000000, 29.133333333, 1.000000000
5469, 19.320000000, 29.133333333, 1.000000000
5470, 20.700000000, 29.133333333, 1.000000000
5471, 22.080000000, 29.133333333, 1.000000000
5472, 23.460000000, 29.133333333, 1.000000000
5473, 24.840000000, 29.133333333, 1.000000000
5474, 26.220000000, 29.133333333, 1.000000000
5475, 27.600000000, 29.133333333, 1.000000000
5476, 28.980000000, 29.133333333, 1.000000000
5477, 30.360000000, 29.133333333, 1.000000000
5478, 31.740000000, 29.133333333, 1.000000000
5479, 33.120000000, 29.133333333, 1.000000000
5480, 34.500000000, 29.133333333, 1.000000000
5481, 35.880000000, 29.133333333, 1.000000000
5482, 37.260000000, 29.133333333, 1.000000000
5483, 38.640000000, 29.133333333, 1.000000000
5484, 40.020000000, 29.133333333, 1.000000000
5485, 41.400000000, 29.133333333, 1.000000000
5486, 42.780000000, 29.133333333, 1.000000000
5487, 44.160000000, 29.133333333, 1.000000000
5488, 45.540000000, 29.133333333, 1.000000000
5489, 46.920000000, 29.133333333, 1.000000000
5490, 48.300000000, 29.133333333, 1.000000000
5491, 49.680000000, 29.133333333, 1.000000000
5492, 51.060000000, 29.133333333, 1.000000000
5493, 52.440000000, 29.133333333, 1.000000000
5494, 53.820000000, 29.133333333, 1.000000000
5495, 55.200000000, 29.133333333, 1.000000000
5496, 56.580000000, 29.133333333, 1.000000000
5497, 57.960000000, 29.133333333, 1.000000000
5498, 59.340000000, 29.133333333, 1.000000000
5499, 60.720000000, 29.133333333, 1.000000000
5500, 62.100000000, 29.133333333, 1.000000000
5501, 63.480000000, 29.133333333, 1.000000000
5502, 64.860000000, 29.133333333, 1.000000000
5503, 66.240000000, 29.133333333, 1.000000000
5504, 67.620000000, 29.133333333, 1.000000000
5505, 69.000000000, 29.133333333, 1.000000000
5506, 70.380000000, 29.133333333, 1.000000000
5507, 71.760000000, 29.133333333, 1.000000000
5508, 73.140000000, 29.133333333, 1.000000000
5509, 74.520000000, 29.133333333, 1.000000000
5510, 75.900000000, 29.133333333, 1.000000000
5511, 77.280000000, 29.133333333, 1.000000000
5512, 78.660000000, 29.133333333, 1.000000000
5513, 80.040000000, 29.133333333, 1.000000000
5514, 81.420000000, 29.133333333, 1.000000000
5515, 82.800000000, 29.133333333, 1.000000000
5516, 84.180000000, 29.133333333, 1.000000000
5517, 85.560000000, 29.133333333, 1.000000000
5518, 86.940000000, 29.133333333, 1.000000000
5519, 88.320000000, 29.133333333, 1.000000000
5520, 89.700000000, 29.133333333, 1.000000000
5521, 91.080000000, 29.133333333, 1.000000000
5522, 92.460000000, 29.133333333, 1.000000000
5523, 93.840000000, 29.133333333, 1.000000000
5524, 95.220000000, 29.133333333, 1.000000000
5525, 96.600000000, 29.133333333, 1.000000000
5526, 97.980000000, 29.133333333, 1.000000000
5527, 99.360000000, 29.133333333, 1.000000000
5528, 100.740000000, 29.133333333, 1.000000000
5529, 102.120000000, 29.133333333, 1.000000000
5530, 103.500000000, 29.133333333, 1.000000000
5531, 104.880000000, 29.133333333, 1.000000000
5532, 106.260000000, 29.133333333, 1.000000000
5533, 107.640000000, 29.133333333, 1.000000000
5534, 109.020000000, 29.133333333, 1.000000000
5535, 110.400000000, 29.133333333, 1.000000000
5536, 111.780000000, 29.133333333, 1.000000000
5537, 113.160000000, 29.133333333, 1.000000000
5538, 114.540000000, 29.133333333, 1.000000000
5539, 115.920000000, 29.133333333, 1.000000000
5540, 117.300000000, 29.133333333, 1.000000000
5541, 118.680000000, 29.133333333, 1.000000000
5542, 120.060000000, 29.133333333, 1.000000000
5543, 121.440000000, 29.133333333, 1.000000000
5544, 122.820000000, 29.133333333, 1.000000000
5545, 124.200000000, 29.133333333, 1.000000000
5546, 125.580000000, 29.133333333, 1.000000000
5547, 126.960000000, 29.133333333, 1.000000000
5548, 128.340000000, 29.133333333, 1.000000000
5549, 129.720000000, 29.133333333, 1.000000000
5550, 131.100000000, 29.133333333, 1.000000000
5551, 132.480000000, 29.133333333, 1.000000000
5552, 133.860000000, 29.133333333, 1.000000000
5553, 135.240000000, 29.133333333, 1.000000000
5554, 136.620000000, 29.133333333, 1.000000000
5555, 138.000000000, 29.133333333, 1.000000000
5556, 0.000000000, 30.400000000, 1.000000000
5557, 1.380000000, 30.400000000, 1.000000000
5558, 2.760000000, 30.400000000, 1.000000000
5559, 4.140000000, 30.400000000, 1.000000000
5560, 5.520000000, 30.400000000, 1.000000000
5561, 6.900000000, 30.400000000, 1.000000000
5562, 8.280000000, 30.400000000, 1.000000000
5563, 9.660000000, 30.400000000, 1.000000000
5564, 11.040000000, 30.400000000, 1.000000000
5565, 12.420000000, 30.400000000, 1.000000000
5566, 13.800000000, 30.400000000, 1.000000000
5567, 15.180000000, 30.400000000, 1.000000000
5568, 16.560000000, 30.400000000, 1.000000000
5569, 17.940000000, 30.400000000, 1.000000000
5570, 19.320000000, 30.400000000, 1.000000000
5571, 20.700000000, 30.400000000, 1.000000000
5572, 22.080000000, 30.400000000, 1.000000000
5573, 23.460000000, 30.400000000, 1.000000000
5574, 24.840000000, 30.400000000, 1.000000000
5575, 26.220000000, 30.400000000, 1.000000000
5576, 27.600000000, 30.400000000, 1.000000000
5577, 28.980000000, 30.400000000, 1.000000000
5578, 30.360000000, 30.400000000, 1.000000000
5579, 31.740000000, 30.400000000, 1.000000000
5580, 33.120000000, 30.400000000, 1.000000000
5581, 34.500000000, 30.400000000, 1.000000000
5582, 35.880000000, 30.400000000, 1.000000000
5583, 37.260000000, 30.400000000, 1.000000000
5584, 38.640000000, 30.400000000, 1.000000000
5585, 40.020000000, 30.400000000, 1.000000000
5586, 41.400000000, 30.400000000, 1.000000000
5587, 42.780000000, 30.400000000, 1.000000000
5588, 44.160000000, 30.400000000, 1.000000000
5589, 45.540000000, 30.400000000, 1.000000000
5590, 46.920000000, 30.400000000, 1.000000000
5591, 48.300000000, 30.400000000, 1.000000000
5592, 49.680000000, 30.400000000, 1.000000000
5593, 51.060000000, 30.400000000, 1.000000000
5594, 52.440000000, 30.400000000, 1.000000000
5595, 53.820000000, 30.400000000, 1.000000000
5596, 55.200000000, 30.400000000, 1.000000000
5597, 56.580000000, 30.400000000, 1.000000000
5598, 57.960000000, 30.400000000, 1.000000000
5599, 59.340000000, 30.400000000, 1.000000000
5600, 60.720000000, 30.400000000, 1.000000000
5601, 62.100000000, 30.400000000, 1.000000000
5602, 63.480000000, 30.400000000, 1.000000000
5603, 64.860000000, 30.400000000, 1.000000000
5604, 66.240000000, 30.400000000, 1.000000000
5605, 67.620000000, 30.400000000, 1.000000000
5606, 69.000000000, 30.400000000, 1.000000000
5607, 70.380000000, 30.400000000, 1.000000000
5608, 71.760000000, 30.400000000, 1.000000000
5609, 73.140000000, 30.400000000, 1.000000000
5610, 74.520000000, 30.400000000, 1.000000000
5611, 75.900000000, 30.400000000, 1.000000000
5612, 77.280000000, 30.400000000, 1.000000000
5613, 78.660000000, 30.400000000, 1.000000000
5614, 80.040000000, 30.400000000, 1.000000000
5615, 81.420000000, 30.400000000, 1.000000000
5616, 82.800000000, 30.400000000, 1.000000000
5617, 84.180000000, 30.400000000, 1.000000000
5618, 85.560000000, 30.400000000, 1.000000000
5619, 86.940000000, 30.400000000, 1.000000000
5620, 88.320000000, 30.400000000, 1.000000000
5621, 89.700000000, 30.400000000, 1.000000000
5622, 91.080000000, 30.400000000, 1.000000000
5623, 92.460000000, 30.400000000, 1.000000000
5624, 93.840000000, 30.400000000, 1.000000000
5625, 95.220000000, 30.400000000, 1.000000000
5626, 96.600000000, 30.400000000, 1.000000000
5627, 97.980000000, 30.400000000, 1.000000000
5628, 99.360000000, 30.400000000, 1.000000000
5629, 100.740000000, 30.400000000, 1.000000000
5630, 102.120000000, 30.400000000, 1.000000000
5631, 103.500000000, 30.400000000, 1.000000000
5632, 104.880000000, 30.400000000, 1.000000000
5633, 106.260000000, 30.400000000, 1.000000000
5634, 107.640000000, 30.400000000, 1.000000000
5635, 109.020000000, 30.400000000, 1.000000000
5636, 110.400000000, 30.400000000, 1.000000000
5637, 111.780000000, 30.400000000, 1.000000000
5638, 113.160000000, 30.400000000, 1.000000000
5639, 114.540000000, 30.400000000, 1.000000000
5640, 115.920000000, 30.400000000, 1.000000000
5641, 117.300000000, 30.400000000, 1.000000000
5642, 118.680000000, 30.400000000, 1.000000000
5643, 120.060000000, 30.400000000, 1.000000000
5644, 121.440000000, 30.400000000, 1.000000000
5645, 122.820000000, 30.400000000, 1.000000000
5646, 124.200000000, 30.400000000, 1.000000000
5647, 125.580000000, 30.400000000, 1.000000000
5648, 126.960000000, 30.400000000, 1.000000000
5649, 128.340000000, 30.400000000, 1.000000000
5650, 129.720000000, 30.400000000, 1.000000000
5651, 131.100000000, 30.400000000, 1.000000000
5652, 132.480000000, 30.400000000, 1.000000000
5653, 133.860000000, 30.400000000, 1.000000000
5654, 135.240000000, 30.400000000, 1.000000000
5655, 136.620000000, 30.400000000, 1.000000000
5656, 138.000000000, 30.400000000, 1.000000000
5657, 0.000000000, 31.666666667, 1.000000000
5658, 1.380000000, 31.666666667, 1.000000000
5659, 2.760000000, 31.666666667, 1.000000000
5660, 4.140000000, 31.666666667, 1.000000000
5661, 5.520000000, 31.666666667, 1.000000000
5662, 6.900000000, 31.666666667, 1.000000000
5663, 8.280000000, 31.666666667, 1.000000000
5664, 9.660000000, 31.666666667, 1.000000000
5665, 11.040000000, 31.666666667, 1.000000000
5666, 12.420000000, 31.666666667, 1.000000000
5667, 13.800000000, 31.666666667, 1.000000000
5668, 15.180000000, 31.666666667, 1.000000000
5669, 16.560000000, 31.666666667, 1.000000000
5670, 17.940000000, 31.666666667, 1.000000000
5671, 19.320000000, 31.666666667, 1.000000000
5672, 20.700000000, 31.666666667, 1.000000000
5673, 22.080000000, 31.666666667, 1.000000000
5674, 23.460000000, 31.666666667, 1.000000000
5675, 24.840000000, 31.666666667, 1.000000000
5676, 26.220000000, 31.666666667, 1.000000000
5677, 27.600000000, 31.666666667, 1.000000000
5678, 28.980000000, 31.666666667, 1.000000000
5679, 30.360000000, 31.666666667, 1.000000000
5680, 31.740000000, 31.666666667, 1.000000000
5681, 33.120000000, 31.666666667, 1.000000000
5682, 34.500000000, 31.666666667, 1.000000000
5683, 35.880000000, 31.666666667, 1.000000000
5684, 37.260000000, 31.666666667, 1.000000000
5685, 38.640000000, 31.666666667, 1.000000000
5686, 40.020000000, 31.666666667, 1.000000000
5687, 41.400000000, 31.666666667, 1.000000000
5688, 42.780000000, 31.666666667, 1.000000000
5689, 44.160000000, 31.666666667, 1.000000000
5690, 45.540000000, 31.666666667, 1.000000000
5691, 46.920000000, 31.666666667, 1.000000000
5692, 48.300000000, 31.666666667, 1.000000000
5693, 49.680000000, 31.666666667, 1.000000000
5694, 51.060000000, 31.666666667, 1.000000000
5695, 52.440000000, 31.666666667, 1.000000000
5696, 53.820000000, 31.666666667, 1.000000000
5697, 55.200000000, 31.666666667, 1.000000000
5698, 56.580000000, 31.666666667, 1.000000000
5699, 57.960000000, 31.666666667, 1.000000000
5700, 59.340000000, 31.666666667, 1.000000000
5701, 60.720000000, 31.666666667, 1.000000000
5702, 62.100000000, 31.666666667, 1.000000000
5703, 63.480000000, 31.666666667, 1.000000000
5704, 64.860000000, 31.666666667, 1.000000000
5705, 66.240000000, 31.666666667, 1.000000000
5706, 67.620000000, 31.666666667, 1.000000000
5707, 69.000000000, 31.666666667, 1.000000000
5708, 70.380000000, 31.666666667, 1.000000000
5709, 71.760000000, 31.666666667, 1.000000000
5710, 73.140000000, 31.666666667, 1.000000000
5711, 74.520000000, 31.666666667, 1.000000000
5712, 75.900000000, 31.666666667, 1.000000000
5713, 77.280000000, 31.666666667, 1.000000000
5714, 78.660000000, 31.666666667, 1.000000000
5715, 80.040000000, 31.666666667, 1.000000000
5716, 81.420000000, 31.666666667, 1.000000000
5717, 82.800000000, 31.666666667, 1.000000000
5718, 84.180000000, 31.666666667, 1.000000000
5719, 85.560000000, 31.666666667, 1.000000000
5720, 86.940000000, 31.666666667, 1.000000000
5721, 88.320000000, 31.666666667, 1.000000000
5722, 89.700000000, 31.666666667, 1.000000000
5723, 91.080000000, 31.666666667, 1.000000000
5724, 92.460000000, 31.666666667, 1.000000000
5725, 93.840000000, 31.666666667, 1.000000000
5726, 95.220000000, 31.666666667, 1.000000000
5727, 96.600000000, 31.666666667, 1.000000000
5728, 97.980000000, 31.666666667, 1.000000000
5729, 99.360000000, 31.666666667, 1.000000000
5730, 100.740000000, 31.666666667, 1.000000000
5731, 102.120000000, 31.666666667, 1.000000000
5732, 103.500000000, 31.666666667, 1.000000000
5733, 104.880000000, 31.666666667, 1.000000000
5734, 106.260000000, 31.666666667, 1.000000000
5735, 107.640000000, 31.666666667, 1.000000000
5736, 109.020000000, 31.666666667, 1.000000000
5737, 110.400000000, 31.666666667, 1.000000000
5738, 111.780000000, 31.666666667, 1.000000000
5739, 113.160000000, 31.666666667, 1.000000000
5740, 114.540000000, 31.666666667, 1.000000000
5741, 115.920000000, 31.666666667, 1.000000000
5742, 117.300000000, 31.666666667, 1.000000000
5743, 118.680000000, 31.666666667, 1.000000000
5744, 120.060000000, 31.666666667, 1.000000000
5745, 121.440000000, 31.666666667, 1.000000000
5746, 122.820000000, 31.666666667, 1.000000000
5747, 124.200000000, 31.666666667, 1.000000000
5748, 125.580000000, 31.666666667, 1.000000000
5749, 126.960000000, 31.666666667, 1.000000000
5750, 128.340000000, 31.666666667, 1.000000000
5751, 129.720000000, 31.666666667, 1.000000000
5752, 131.100000000, 31.666666667, 1.000000000
5753, 132.480000000, 31.666666667, 1.000000000
5754, 133.860000000, 31.666666667, 1.000000000
5755, 135.240000000, 31.666666667, 1.000000000
5756, 136.620000000, 31.666666667, 1.000000000
5757, 138.000000000, 31.666666667, 1.000000000
5758, 0.000000000, 32.933333333, 1.000000000
5759, 1.380000000, 32.933333333, 1.000000000
5760, 2.760000000, 32.933333333, 1.000000000
5761, 4.140000000, 32.933333333, 1.000000000
5762, 5.520000000, 32.933333333, 1.000000000
5763, 6.900000000, 32.933333333, 1.000000000
5764, 8.280000000, 32.933333333, 1.000000000
5765, 9.660000000, 32.933333333, 1.000000000
5766, 11.040000000, 32.933333333, 1.000000000
5767, 12.420000000, 32.933333333, 1.000000000
5768, 13.800000000, 32.933333333, 1.000000000
5769, 15.180000000, 32.933333333, 1.000000000
5770, 16.560000000, 32.933333333, 1.000000000
5771, 17.940000000, 32.933333333, 1.000000000
5772, 19.320000000, 32.933333333, 1.000000000
5773, 20.700000000, 32.933333333, 1.000000000
5774, 22.080000000, 32.933333333, 1.000000000
5775, 23.460000000, 32.933333333, 1.000000000
5776, 24.840000000, 32.933333333, 1.000000000
5777, 26.220000000, 32.933333333, 1.000000000
5778, 27.600000000, 32.933333333, 1.000000000
5779, 28.980000000, 32.933333333, 1.000000000
5780, 30.360000000, 32.933333333, 1.000000000
5781, 31.740000000, 32.933333333, 1.000000000
5782, 33.120000000, 32.933333333, 1.000000000
5783, 34.500000000, 32.933333333, 1.000000000
5784, 35.880000000, 32.933333333, 1.000000000
5785, 37.260000000, 32.933333333, 1.000000000
5786, 38.640000000, 32.933333333, 1.000000000
5787, 40.020000000, 32.933333333, 1.000000000
5788, 41.400000000, 32.933333333, 1.000000000
5789, 42.780000000, 32.933333333, 1.000000000
5790, 44.160000000, 32.933333333, 1.000000000
5791, 45.540000000, 32.933333333, 1.000000000
5792, 46.920000000, 32.933333333, 1.000000000
5793, 48.300000000, 32.933333333, 1.000000000
5794, 49.680000000, 32.933333333, 1.000000000
5795, 51.060000000, 32.933333333, 1.000000000
5796, 52.440000000, 32.933333333, 1.000000000
5797, 53.820000000, 32.933333333, 1.000000000
5798, 55.200000000, 32.933333333, 1.000000000
5799, 56.580000000, 32.933333333, 1.000000000
5800, 57.960000000, 32.933333333, 1.000000000
5801, 59.340000000, 32.933333333, 1.000000000
5802, 60.720000000, 32.933333333, 1.000000000
5803, 62.100000000, 32.933333333, 1.000000000
5804, 63.480000000, 32.933333333, 1.000000000
5805, 64.860000000, 32.933333333, 1.000000000
5806, 66.240000000, 32.933333333, 1.000000000
5807, 67.620000000, 32.933333333, 1.000000000
5808, 69.000000000, 32.933333333, 1.000000000
5809, 70.380000000, 32.933333333, 1.000000000
5810, 71.760000000, 32.933333333, 1.000000000
5811, 73.140000000, 32.933333333, 1.000000000
5812, 74.520000000, 32.933333333, 1.000000000
5813, 75.900000000, 32.933333333, 1.000000000
5814, 77.280000000, 32.933333333, 1.000000000
5815, 78.660000000, 32.933333333, 1.000000000
5816, 80.040000000, 32.933333333, 1.000000000
5817, 81.420000000, 32.933333333, 1.000000000
5818, 82.800000000, 32.933333333, 1.000000000
5819, 84.180000000, 32.933333333, 1.000000000
5820, 85.560000000, 32.933333333, 1.000000000
5821, 86.940000000, 32.933333333, 1.000000000
5822, 88.320000000, 32.933333333, 1.000000000
5823, 89.700000000, 32.933333333, 1.000000000
5824, 91.080000000, 32.933333333, 1.000000000
5825, 92.460000000, 32.933333333, 1.000000000
5826, 93.840000000, 32.933333333, 1.000000000
5827, 95.220000000, 32.933333333, 1.000000000
5828, 96.600000000, 32.933333333, 1.000000000
5829, 97.980000000, 32.933333333, 1.000000000
5830, 99.360000000, 32.933333333, 1.000000000
5831, 100.740000000, 32.933333333, 1.000000000
5832, 102.120000000, 32.933333333, 1.000000000
5833, 103.500000000, 32.933333333, 1.000000000
5834, 104.880000000, 32.933333333, 1.000000000
5835, 106.260000000, 32.933333333, 1.000000000
5836, 107.640000000, 32.933333333, 1.000000000
5837, 109.020000000, 32.933333333, 1.000000000
5838, 110.400000000, 32.933333333, 1.000000000
5839, 111.780000000, 32.933333333, 1.000000000
5840, 113.160000000, 32.933333333, 1.000000000
5841, 114.540000000, 32.933333333, 1.000000000
5842, 115.920000000, 32.933333333, 1.000000000
5843, 117.300000000, 32.933333333, 1.000000000
5844, 118.680000000, 32.933333333, 1.000000000
5845, 120.060000000, 32.933333333, 1.000000000
5846, 121.440000000, 32.933333333, 1.000000000
5847, 122.820000000, 32.933333333, 1.000000000
5848, 124.200000000, 32.933333333, 1.000000000
5849, 125.580000000, 32.933333333, 1.000000000
5850, 126.960000000, 32.933333333, 1.000000000
5851, 128.340000000, 32.933333333, 1.000000000
5852, 129.720000000, 32.933333333, 1.000000000
5853, 131.100000000, 32.933333333, 1.000000000
5854, 132.480000000, 32.933333333, 1.000000000
5855, 133.860000000, 32.933333333, 1.000000000
5856, 135.240000000, 32.933333333, 1.000000000
5857, 136.620000000, 32.933333333, 1.000000000
5858, 138.000000000, 32.933333333, 1.000000000
5859, 0.000000000, 34.200000000, 1.000000000
5860, 1.380000000, 34.200000000, 1.000000000
5861, 2.760000000, 34.200000000, 1.000000000
5862, 4.140000000, 34.200000000, 1.000000000
5863, 5.520000000, 34.200000000, 1.000000000
5864, 6.900000000, 34.200000000, 1.000000000
5865, 8.280000000, 34.200000000, 1.000000000
5866, 9.660000000, 34.200000000, 1.000000000
5867, 11.040000000, 34.200000000, 1.000000000
5868, 12.420000000, 34.200000000, 1.000000000
5869, 13.800000000, 34.200000000, 1.000000000
5870, 15.180000000, 34.200000000, 1.000000000
5871, 16.560000000, 34.200000000, 1.000000000
5872, 17.940000000, 34.200000000, 1.000000000
5873, 19.320000000, 34.200000000, 1.000000000
5874, 20.700000000, 34.200000000, 1.000000000
5875, 22.080000000, 34.200000000, 1.000000000
5876, 23.460000000, 34.200000000, 1.000000000
5877, 24.840000000, 34.200000000, 1.000000000
5878, 26.220000000, 34.200000000, 1.000000000
5879, 27.600000000, 34.200000000, 1.000000000
5880, 28.980000000, 34.200000000, 1.000000000
5881, 30.360000000, 34.200000000, 1.000000000
5882, 31.740000000, 34.200000000, 1.000000000
5883, 33.120000000, 34.200000000, 1.000000000
5884, 34.500000000, 34.200000000, 1.000000000
5885, 35.880000000, 34.200000000, 1.000000000
5886, 37.260000000, 34.200000000, 1.000000000
5887, 38.640000000, 34.200000000, 1.000000000
5888, 40.020000000, 34.200000000, 1.000000000
5889, 41.400000000, 34.200000000, 1.000000000
5890, 42.780000000, 34.200000000, 1.000000000
5891, 44.160000000, 34.200000000, 1.000000000
5892, 45.540000000, 34.200000000, 1.000000000
5893, 46.920000000, 34.200000000, 1.000000000
5894, 48.300000000, 34.200000000, 1.000000000
5895, 49.680000000, 34.200000000, 1.000000000
5896, 51.060000000, 34.200000000, 1.000000000
5897, 52.440000000, 34.200000000, 1.000000000
5898, 53.820000000, 34.200000000, 1.000000000
5899, 55.200000000, 34.200000000, 1.000000000
5900, 56.580000000, 34.200000000, 1.000000000
5901, 57.960000000, 34.200000000, 1.000000000
5902, 59.340000000, 34.200000000, 1.000000000
5903, 60.720000000, 34.200000000, 1.000000000
5904, 62.100000000, 34.200000000, 1.000000000
5905, 63.480000000, 34.200000000, 1.000000000
5906, 64.860000000, 34.200000000, 1.000000000
5907, 66.240000000, 34.200000000, 1.000000000
5908, 67.620000000, 34.200000000, 1.000000000
5909, 69.000000000, 34.200000000, 1.000000000
5910, 70.380000000, 34.200000000, 1.000000000
5911, 71.760000000, 34.200000000, 1.000000000
5912, 73.140000000, 34.200000000, 1.000000000
5913, 74.520000000, 34.200000000, 1.000000000
5914, 75.900000000, 34.200000000, 1.000000000
5915, 77.280000000, 34.200000000, 1.000000000
5916, 78.660000000, 34.200000000, 1.000000000
5917, 80.040000000, 34.200000000, 1.000000000
5918, 81.420000000, 34.200000000, 1.000000000
5919, 82.800000000, 34.200000000, 1.000000000
5920, 84.180000000, 34.200000000, 1.000000000
5921, 85.560000000, 34.200000000, 1.000000000
5922, 86.940000000, 34.200000000, 1.000000000
5923, 88.320000000, 34.200000000, 1.000000000
5924, 89.700000000, 34.200000000, 1.000000000
5925, 91.080000000, 34.200000000, 1.000000000
5926, 92.460000000, 34.200000000, 1.000000000
5927, 93.840000000, 34.200000000, 1.000000000
5928, 95.220000000, 34.200000000, 1.000000000
5929, 96.600000000, 34.200000000, 1.000000000
5930, 97.980000000, 34.200000000, 1.000000000
5931, 99.360000000, 34.200000000, 1.000000000
5932, 100.740000000, 34.200000000, 1.000000000
5933, 102.120000000, 34.200000000, 1.000000000
5934, 103.500000000, 34.200000000, 1.000000000
5935, 104.880000000, 34.200000000, 1.000000000
5936, 106.260000000, 34.200000000, 1.000000000
5937, 107.640000000, 34.200000000, 1.000000000
5938, 109.020000000, 34.200000000, 1.000000000
5939, 110.400000000, 34.200000000, 1.000000000
5940, 111.780000000, 34.200000000, 1.000000000
5941, 113.160000000, 34.200000000, 1.000000000
5942, 114.540000000, 34.200000000, 1.000000000
5943, 115.920000000, 34.200000000, 1.000000000
5944, 117.300000000, 34.200000000, 1.000000000
5945, 118.680000000, 34.200000000, 1.000000000
5946, 120.060000000, 34.200000000, 1.000000000
5947, 121.440000000, 34.200000000, 1.000000000
5948, 122.820000000, 34.200000000, 1.000000000
5949, 124.200000000, 34.200000000, 1.000000000
5950, 125.580000000, 34.200000000, 1.000000000
5951, 126.960000000, 34.200000000, 1.000000000
5952, 128.340000000, 34.200000000, 1.000000000
5953, 129.720000000, 34.200000000, 1.000000000
5954, 131.100000000, 34.200000000, 1.000000000
5955, 132.480000000, 34.200000000, 1.000000000
5956, 133.860000000, 34.200000000, 1.000000000
5957, 135.240000000, 34.200000000, 1.000000000
5958, 136.620000000, 34.200000000, 1.000000000
5959, 138.000000000, 34.200000000, 1.000000000
5960, 0.000000000, 35.466666667, 1.000000000
5961, 1.380000000, 35.466666667, 1.000000000
5962, 2.760000000, 35.466666667, 1.000000000
5963, 4.140000000, 35.466666667, 1.000000000
5964, 5.520000000, 35.466666667, 1.000000000
5965, 6.900000000, 35.466666667, 1.000000000
5966, 8.280000000, 35.466666667, 1.000000000
5967, 9.660000000, 35.466666667, 1.000000000
5968, 11.040000000, 35.466666667, 1.000000000
5969, 12.420000000, 35.466666667, 1.000000000
5970, 13.800000000, 35.466666667, 1.000000000
5971, 15.180000000, 35.466666667, 1.000000000
5972, 16.560000000, 35.466666667, 1.000000000
5973, 17.940000000, 35.466666667, 1.000000000
5974, 19.320000000, 35.466666667, 1.000000000
5975, 20.700000000, 35.466666667, 1.000000000
5976, 22.080000000, 35.466666667, 1.000000000
5977, 23.460000000, 35.466666667, 1.000000000
5978, 24.840000000, 35.466666667, 1.000000000
5979, 26.220000000, 35.466666667, 1.000000000
5980, 27.600000000, 35.466666667, 1.000000000
5981, 28.980000000, 35.466666667, 1.000000000
5982, 30.360000000, 35.466666667, 1.000000000
5983, 31.740000000, 35.466666667, 1.000000000
5984, 33.120000000, 35.466666667, 1.000000000
5985, 34.500000000, 35.466666667, 1.000000000
5986, 35.880000000, 35.466666667, 1.000000000
5987, 37.260000000, 35.466666667, 1.000000000
5988, 38.640000000, 35.466666667, 1.000000000
5989, 40.020000000, 35.466666667, 1.000000000
5990, 41.400000000, 35.466666667, 1.000000000
5991, 42.780000000, 35.466666667, 1.000000000
5992, 44.160000000, 35.466666667, 1.000000000
5993, 45.540000000, 35.466666667, 1.000000000
5994, 46.920000000, 35.466666667, 1.000000000
5995, 48.300000000, 35.466666667, 1.000000000
5996, 49.680000000, 35.466666667, 1.000000000
5997, 51.060000000, 35.466666667, 1.000000000
5998, 52.440000000, 35.466666667, 1.000000000
5999, 53.820000000, 35.466666667, 1.000000000
6000, 55.200000000, 35.466666667, 1.000000000
6001, 56.580000000, 35.466666667, 1.000000000
6002, 57.960000000, 35.466666667, 1.000000000
6003, 59.340000000, 35.466666667, 1.000000000
6004, 60.720000000, 35.466666667, 1.000000000
6005, 62.100000000, 35.466666667, 1.000000000
6006, 63.480000000, 35.466666667, 1.000000000
6007, 64.860000000, 35.466666667, 1.000000000
6008, 66.240000000, 35.466666667, 1.000000000
6009, 67.620000000, 35.466666667, 1.000000000
6010, 69.000000000, 35.466666667, 1.000000000
6011, 70.380000000, 35.466666667, 1.000000000
6012, 71.760000000, 35.466666667, 1.000000000
6013, 73.140000000, 35.466666667, 1.000000000
6014, 74.520000000, 35.466666667, 1.000000000
6015, 75.900000000, 35.466666667, 1.000000000
6016, 77.280000000, 35.466666667, 1.000000000
6017, 78.660000000, 35.466666667, 1.000000000
6018, 80.040000000, 35.466666667, 1.000000000
6019, 81.420000000, 35.466666667, 1.000000000
6020, 82.800000000, 35.466666667, 1.000000000
6021, 84.180000000, 35.466666667, 1.000000000
6022, 85.560000000, 35.466666667, 1.000000000
6023, 86.940000000, 35.466666667, 1.000000000
6024, 88.320000000, 35.466666667, 1.000000000
6025, 89.700000000, 35.466666667, 1.000000000
6026, 91.080000000, 35.466666667, 1.000000000
6027, 92.460000000, 35.466666667, 1.000000000
6028, 93.840000000, 35.466666667, 1.000000000
6029, 95.220000000, 35.466666667, 1.000000000
6030, 96.600000000, 35.466666667, 1.000000000
6031, 97.980000000, 35.466666667, 1.000000000
6032, 99.360000000, 35.466666667, 1.000000000
6033, 100.740000000, 35.466666667, 1.000000000
6034, 102.120000000, 35.466666667, 1.000000000
6035, 103.500000000, 35.466666667, 1.000000000
6036, 104.880000000, 35.466666667, 1.000000000
6037, 106.260000000, 35.466666667, 1.000000000
6038, 107.640000000, 35.466666667, 1.000000000
6039, 109.020000000, 35.466666667, 1.000000000
6040, 110.400000000, 35.466666667, 1.000000000
6041, 111.780000000, 35.466666667, 1.000000000
6042, 113.160000000, 35.466666667, 1.000000000
6043, 114.540000000, 35.466666667, 1.000000000
6044, 115.920000000, 35.466666667, 1.000000000
6045, 117.300000000, 35.466666667, 1.000000000
6046, 118.680000000, 35.466666667, 1.000000000
6047, 120.060000000, 35.466666667, 1.000000000
6048, 121.440000000, 35.466666667, 1.000000000
6049, 122.820000000, 35.466666667, 1.000000000
6050, 124.200000000, 35.466666667, 1.000000000
6051, 125.580000000, 35.466666667, 1.000000000
6052, 126.960000000, 35.466666667, 1.000000000
6053, 128.340000000, 35.466666667, 1.000000000
6054, 129.720000000, 35.466666667, 1.000000000
6055, 131.100000000, 35.466666667, 1.000000000
6056, 132.480000000, 35.466666667, 1.000000000
6057, 133.860000000, 35.466666667, 1.000000000
6058, 135.240000000, 35.466666667, 1.000000000
6059, 136.620000000, 35.466666667, 1.000000000
6060, 138.000000000, 35.466666667, 1.000000000
6061, 0.000000000, 36.733333333, 1.000000000
6062, 1.380000000, 36.733333333, 1.000000000
6063, 2.760000000, 36.733333333, 1.000000000
6064, 4.140000000, 36.733333333, 1.000000000
6065, 5.520000000, 36.733333333, 1.000000000
6066, 6.900000000, 36.733333333, 1.000000000
6067, 8.280000000, 36.733333333, 1.000000000
6068, 9.660000000, 36.733333333, 1.000000000
6069, 11.040000000, 36.733333333, 1.000000000
6070, 12.420000000, 36.733333333, 1.000000000
6071, 13.800000000, 36.733333333, 1.000000000
6072, 15.180000000, 36.733333333, 1.000000000
6073, 16.560000000, 36.733333333, 1.000000000
6074, 17.940000000, 36.733333333, 1.000000000
6075, 19.320000000, 36.733333333, 1.000000000
6076, 20.700000000, 36.733333333, 1.000000000
6077, 22.080000000, 36.733333333, 1.000000000
6078, 23.460000000, 36.733333333, 1.000000000
6079, 24.840000000, 36.733333333, 1.000000000
6080, 26.220000000, 36.733333333, 1.000000000
6081, 27.600000000, 36.733333333, 1.000000000
6082, 28.980000000, 36.733333333, 1.000000000
6083, 30.360000000, 36.733333333, 1.000000000
6084, 31.740000000, 36.733333333, 1.000000000
6085, 33.120000000, 36.733333333, 1.000000000
6086, 34.500000000, 36.733333333, 1.000000000
6087, 35.880000000, 36.733333333, 1.000000000
6088, 37.260000000, 36.733333333, 1.000000000
6089, 38.640000000, 36.733333333, 1.000000000
6090, 40.020000000, 36.733333333, 1.000000000
6091, 41.400000000, 36.733333333, 1.000000000
6092, 42.780000000, 36.733333333, 1.000000000
6093, 44.160000000, 36.733333333, 1.000000000
6094, 45.540000000, 36.733333333, 1.000000000
6095, 46.920000000, 36.733333333, 1.000000000
6096, 48.300000000, 36.733333333, 1.000000000
6097, 49.680000000, 36.733333333, 1.000000000
6098, 51.060000000, 36.733333333, 1.000000000
6099, 52.440000000, 36.733333333, 1.000000000
6100, 53.820000000, 36.733333333, 1.000000000
6101, 55.200000000, 36.733333333, 1.000000000
6102, 56.580000000, 36.733333333, 1.000000000
6103, 57.960000000, 36.733333333, 1.000000000
6104, 59.340000000, 36.733333333, 1.000000000
6105, 60.720000000, 36.733333333, 1.000000000
6106, 62.100000000, 36.733333333, 1.000000000
6107, 63.480000000, 36.733333333, 1.000000000
6108, 64.860000000, 36.733333333, 1.000000000
6109, 66.240000000, 36.733333333, 1.000000000
6110, 67.620000000, 36.733333333, 1.000000000
6111, 69.000000000, 36.733333333, 1.000000000
6112, 70.380000000, 36.733333333, 1.000000000
6113, 71.760000000, 36.733333333, 1.000000000
6114, 73.140000000, 36.733333333, 1.000000000
6115, 74.520000000, 36.733333333, 1.000000000
6116, 75.900000000, 36.733333333, 1.000000000
6117, 77.280000000, 36.733333333, 1.000000000
6118, 78.660000000, 36.733333333, 1.000000000
6119, 80.040000000, 36.733333333, 1.000000000
6120, 81.420000000, 36.733333333, 1.000000000
6121, 82.800000000, 36.733333333, 1.000000000
6122, 84.180000000, 36.733333333, 1.000000000
6123, 85.560000000, 36.733333333, 1.000000000
6124, 86.940000000, 36.733333333, 1.000000000
6125, 88.320000000, 36.733333333, 1.000000000
6126, 89.700000000, 36.733333333, 1.000000000
6127, 91.080000000, 36.733333333, 1.000000000
6128, 92.460000000, 36.733333333, 1.000000000
6129, 93.840000000, 36.733333333, 1.000000000
6130, 95.220000000, 36.733333333, 1.000000000
6131, 96.600000000, 36.733333333, 1.000000000
6132, 97.980000000, 36.733333333, 1.000000000
6133, 99.360000000, 36.733333333, 1.000000000
6134, 100.740000000, 36.733333333, 1.000000000
6135, 102.120000000, 36.733333333, 1.000000000
6136, 103.500000000, 36.733333333, 1.000000000
6137, 104.880000000, 36.733333333, 1.000000000
6138, 106.260000000, 36.733333333, 1.000000000
6139, 107.640000000, 36.733333333, 1.000000000
6140, 109.020000000, 36.733333333, 1.000000000
6141, 110.400000000, 36.733333333, 1.000000000
6142, 111.780000000, 36.733333333, 1.000000000
6143, 113.160000000, 36.733333333, 1.000000000
6144, 114.540000000, 36.733333333, 1.000000000
6145, 115.920000000, 36.733333333, 1.000000000
6146, 117.300000000, 36.733333333, 1.000000000
6147, 118.680000000, 36.733333333, 1.000000000
6148, 120.060000000, 36.733333333, 1.000000000
6149, 121.440000000, 36.733333333, 1.000000000
6150, 122.820000000, 36.733333333, 1.000000000
6151, 124.200000000, 36.733333333, 1.000000000
6152, 125.580000000, 36.733333333, 1.000000000
6153, 126.960000000, 36.733333333, 1.000000000
6154, 128.340000000, 36.733333333, 1.000000000
6155, 129.720000000, 36.733333333, 1.000000000
6156, 131.100000000, 36.733333333, 1.000000000
6157, 132.480000000, 36.733333333, 1.000000000
6158, 133.860000000, 36.733333333, 1.000000000
6159, 135.240000000, 36.733333333, 1.000000000
6160, 136.620000000, 36.733333333, 1.000000000
6161, 138.000000000, 36.733333333, 1.000000000
6162, 0.000000000, 38.000000000, 1.000000000
6163, 1.380000000, 38.000000000, 1.000000000
6164, 2.760000000, 38.000000000, 1.000000000
6165, 4.140000000, 38.000000000, 1.000000000
6166, 5.520000000, 38.000000000, 1.000000000
6167, 6.900000000, 38.000000000, 1.000000000
6168, 8.280000000, 38.000000000, 1.000000000
6169, 9.660000000, 38.000000000, 1.000000000
6170, 11.040000000, 38.000000000, 1.000000000
6171, 12.420000000, 38.000000000, 1.000000000
6172, 13.800000000, 38.000000000, 1.000000000
6173, 15.180000000, 38.000000000, 1.000000000
6174, 16.560000000, 38.000000000, 1.000000000
6175, 17.940000000, 38.000000000, 1.000000000
6176, 19.320000000, 38.000000000, 1.000000000
6177, 20.700000000, 38.000000000, 1.000000000
6178, 22.080000000, 38.000000000, 1.000000000
6179, 23.460000000, 38.000000000, 1.000000000
6180, 24.840000000, 38.000000000, 1.000000000
6181, 26.220000000, 38.000000000, 1.000000000
6182, 27.600000000, 38.000000000, 1.000000000
6183, 28.980000000, 38.000000000, 1.000000000
6184, 30.360000000, 38.000000000, 1.000000000
6185, 31.740000000, 38.000000000, 1.000000000
6186, 33.120000000, 38.000000000, 1.000000000
6187, 34.500000000, 38.000000000, 1.000000000
6188, 35.880000000, 38.000000000, 1.000000000
6189, 37.260000000, 38.000000000, 1.000000000
6190, 38.640000000, 38.000000000, 1.000000000
6191, 40.020000000, 38.000000000, 1.000000000
6192, 41.400000000, 38.000000000, 1.000000000
6193, 42.780000000, 38.000000000, 1.000000000
6194, 44.160000000, 38.000000000, 1.000000000
6195, 45.540000000, 38.000000000, 1.000000000
6196, 46.920000000, 38.000000000, 1.000000000
6197, 48.300000000, 38.000000000, 1.000000000
6198, 49.680000000, 38.000000000, 1.000000000
6199, 51.060000000, 38.000000000, 1.000000000
6200, 52.440000000, 38.000000000, 1.000000000
6201, 53.820000000, 38.000000000, 1.000000000
6202, 55.200000000, 38.000000000, 1.000000000
6203, 56.580000000, 38.000000000, 1.000000000
6204, 57.960000000, 38.000000000, 1.000000000
6205, 59.340000000, 38.000000000, 1.000000000
6206, 60.720000000, 38.000000000, 1.000000000
6207, 62.100000000, 38.000000000, 1.000000000
6208, 63.480000000, 38.000000000, 1.000000000
6209, 64.860000000, 38.000000000, 1.000000000
6210, 66.240000000, 38.000000000, 1.000000000
6211, 67.620000000, 38.000000000, 1.000000000
6212, 69.000000000, 38.000000000, 1.000000000
6213, 70.380000000, 38.000000000, 1.000000000
6214, 71.760000000, 38.000000000, 1.000000000
6215, 73.140000000, 38.000000000, 1.000000000
6216, 74.520000000, 38.000000000, 1.000000000
6217, 75.900000000, 38.000000000, 1.000000000
6218, 77.280000000, 38.000000000, 1.000000000
6219, 78.660000000, 38.000000000, 1.000000000
6220, 80.040000000, 38.000000000, 1.000000000
6221, 81.420000000, 38.000000000, 1.000000000
6222, 82.800000000, 38.000000000, 1.000000000
6223, 84.180000000, 38.000000000, 1.000000000
6224, 85.560000000, 38.000000000, 1.000000000
6225, 86.940000000, 38.000000000, 1.000000000
6226, 88.320000000, 38.000000000, 1.000000000
6227, 89.700000000, 38.000000000, 1.000000000
6228, 91.080000000, 38.000000000, 1.000000000
6229, 92.460000000, 38.000000000, 1.000000000
6230, 93.840000000, 38.000000000, 1.000000000
6231, 95.220000000, 38.000000000, 1.000000000
6232, 96.600000000, 38.000000000, 1.000000000
6233, 97.980000000, 38.000000000, 1.000000000
6234, 99.360000000, 38.000000000, 1.000000000
6235, 100.740000000, 38.000000000, 1.000000000
6236, 102.120000000, 38.000000000, 1.000000000
6237, 103.500000000, 38.000000000, 1.000000000
6238, 104.880000000, 38.000000000, 1.000000000
6239, 106.260000000, 38.000000000, 1.000000000
6240, 107.640000000, 38.000000000, 1.000000000
6241, 109.020000000, 38.000000000, 1.000000000
6242, 110.400000000, 38.000000000, 1.000000000
6243, 111.780000000, 38.000000000, 1.000000000
6244, 113.160000000, 38.000000000, 1.000000000
6245, 114.540000000, 38.000000000, 1.000000000
6246, 115.920000000, 38.000000000, 1.000000000
6247, 117.300000000, 38.000000000, 1.000000000
6248, 118.680000000, 38.000000000, 1.000000000
6249, 120.060000000, 38.000000000, 1.000000000
6250, 121.440000000, 38.000000000, 1.000000000
6251, 122.820000000, 38.000000000, 1.000000000
6252, 124.200000000, 38.000000000, 1.000000000
6253, 125.580000000, 38.000000000, 1.000000000
6254, 126.960000000, 38.000000000, 1.000000000
6255, 128.340000000, 38.000000000, 1.000000000
6256, 129.720000000, 38.000000000, 1.000000000
6257, 131.100000000, 38.000000000, 1.000000000
6258, 132.480000000, 38.000000000, 1.000000000
6259, 133.860000000, 38.000000000, 1.000000000
6260, 135.240000000, 38.000000000, 1.000000000
6261, 136.620000000, 38.000000000, 1.000000000
6262, 138.000000000, 38.000000000, 1.000000000
*ELEMENT, TYPE=C3D8
1, 1, 2, 103, 102, 3132, 3133, 3234, 3233
2, 2, 3, 104, 103, 3133, 3134, 3235, 3234
3, 3, 4, 105, 104, 3134, 3135, 3236, 3235
4, 4, 5, 106, 105, 3135, 3136, 3237, 3236
5, 5, 6, 107, 106, 3136, 3137, 3238, 3237
6, 6, 7, 108, 107, 3137, 3138, 3239, 3238
7, 7, 8, 109, 108, 3138, 3139, 3240, 3239
8, 8, 9, 110, 109, 3139, 3140, 3241, 3240
9, 9, 10, 111, 110, 3140, 3141, 3242, 3241
10, 10, 11, 112, 111, 3141, 3142, 3243, 3242
11, 11, 12, 113, 112, 3142, 3143, 3244, 3243
12, 12, 13, 114, 113, 3143, 3144, 3245, 3244
13, 13, 14, 115, 114, 3144, 3145, 3246, 3245
14, 14, 15, 116, 115, 3145, 3146, 3247, 3246
15, 15, 16, 117, 116, 3146, 3147, 3248, 3247
16, 16, 17, 118, 117, 3147, 3148, 3249, 3248
17, 17, 18, 119, 118, 3148, 3149, 3250, 3249
18, 18, 19, 120, 119, 3149, 3150, 3251, 3250
19, 19, 20, 121, 120, 3150, 3151, 3252, 3251
20, 20, 21, 122, 121, 3151, 3152, 3253, 3252
21, 21, 22, 123, 122, 3152, 3153, 3254, 3253
22, 22, 23, 124, 123, 3153, 3154, 3255, 3254
23, 23, 24, 125, 124, 3154, 3155, 3256, 3255
24, 24, 25, 126, 125, 3155, 3156, 3257, 3256
25, 25, 26, 127, 126, 3156, 3157, 3258, 3257
26, 26, 27, 128, 127, 3157, 3158, 3259, 3258
27, 27, 28, 129, 128, 3158, 3159, 3260, 3259
28, 28, 29, 130, 129, 3159, 3160, 3261, 3260
29, 29, 30, 131, 130, 3160, 3161, 3262, 3261
30, 30, 31, 132, 131, 3161, 3162, 3263, 3262
31, 31, 32, 133, 132, 3162, 3163, 3264, 3263
32, 32, 33, 134, 133, 3163, 3164, 3265, 3264
33, 33, 34, 135, 134, 3164, 3165, 3266, 3265
34, 34, 35, 136, 135, 3165, 3166, 3267, 3266
35, 35, 36, 137, 136, 3166, 3167, 3268, 3267
36, 36, 37, 138, 137, 3167, 3168, 3269, 3268
37, 37, 38, 139, 138, 3168, 3169, 3270, 3269
38, 38, 39, 140, 139, 3169, 3170, 3271, 3270
39, 39, 40, 141, 140, 3170, 3171, 3272, 3271
40, 40, 41, 142, 141, 3171, 3172, 3273, 3272
41, 41, 42, 143, 142, 3172, 3173, 3274, 3273
42, 42, 43, 144, 143, 3173, 3174, 3275, 3274
43, 43, 44, 145, 144, 3174, 3175, 3276, 3275
44, 44, 45, 146, 145, 3175, 3176, 3277, 3276
45, 45, 46, 147, 146, 3176, 3177, 3278, 3277
46, 46, 47, 148, 147, 3177, 3178, 3279, 3278
47, 47, 48, 149, 148, 3178, 3179, 3280, 3279
48, 48, 49, 150, 149, 3179, 3180, 3281, 3280
49, 53, 54, 155, 154, 3184, 3185, 3286, 3285
50, 54, 55, 156, 155, 3185, 3186, 3287, 3286
51, 55, 56, 157, 156, 3186, 3187, 3288, 3287
52, 56, 57, 158, 157, 3187, 3188, 3289, 3288
53, 57, 58, 159, 158, 3188, 3189, 3290, 3289
54, 58, 59, 160, 159, 3189, 3190, 3291, 3290
55, 59, 60, 161, 160, 3190, 3191, 3292, 3291
56, 60, 61, 162, 161, 3191, 3192, 3293, 3292
57, 61, 62, 163, 162, 3192, 3193, 3294, 3293
58, 62, 63, 164, 163, 3193, 3194, 3295, 3294
59, 63, 64, 165, 164, 3194, 3195, 3296, 3295
60, 64, 65, 166, 165, 3195, 3196, 3297, 3296
61, 65, 66, 167, 166, 3196, 3197, 3298, 3297
62, 66, 67, 168, 167, 3197, 3198, 3299, 3298
63, 67, 68, 169, 168, 3198, 3199, 3300, 3299
64, 68, 69, 170, 169, 3199, 3200, 3301, 3300
65, 69, 70, 171, 170, 3200, 3201, 3302, 3301
66, 70, 71, 172, 171, 3201, 3202, 3303, 3302
67, 71, 72, 173, 172, 3202, 3203, 3304, 3303
68, 72, 73, 174, 173, 3203, 3204, 3305, 3304
69, 73, 74, 175, 174, 3204, 3205, 3306, 3305
70, 74, 75, 176, 175, 3205, 3206, 3307, 3306
71, 75, 76, 177, 176, 3206, 3207, 3308, 3307
72, 76, 77, 178, 177, 3207, 3208, 3309, 3308
73, 77, 78, 179, 178, 3208, 3209, 3310, 3309
74, 78, 79, 180, 179, 3209, 3210, 3311, 3310
75, 79, 80, 181, 180, 3210, 3211, 3312, 3311
76, 80, 81, 182, 181, 3211, 3212, 3313, 3312
77, 81, 82, 183, 182, 3212, 3213, 3314, 3313
78, 82, 83, 184, 183, 3213, 3214, 3315, 3314
79, 83, 84, 185, 184, 3214, 3215, 3316, 3315
80, 84, 85, 186, 185, 3215, 3216, 3317, 3316
81, 85, 86, 187, 186, 3216, 3217, 3318, 3317
82, 86, 87, 188, 187, 3217, 3218, 3319, 3318
83, 87, 88, 189, 188, 3218, 3219, 3320, 3319
84, 88, 89, 190, 189, 3219, 3220, 3321, 3320
85, 89, 90, 191, 190, 3220, 3221, 3322, 3321
86, 90, 91, 192, 191, 3221, 3222, 3323, 3322
87, 91, 92, 193, 192, 3222, 3223, 3324, 3323
88, 92, 93, 194, 193, 3223, 3224, 3325, 3324
89, 93, 94, 195, 194, 3224, 3225, 3326, 3325
90, 94, 95, 196, 195, 3225, 3226, 3327, 3326
91, 95, 96, 197, 196, 3226, 3227, 3328, 3327
92, 96, 97, 198, 197, 3227, 3228, 3329, 3328
93, 97, 98, 199, 198, 3228, 3229, 3330, 3329
94, 98, 99, 200, 199, 3229, 3230, 3331, 3330
95, 99, 100, 201, 200, 3230, 3231, 3332, 3331
96, 100, 101, 202, 201, 3231, 3232, 3333, 3332
97, 102, 103, 204, 203, 3233, 3234, 3335, 3334
98, 103, 104, 205, 204, 3234, 3235, 3336, 3335
99, 104, 105, 206, 205, 3235, 3236, 3337, 3336
100, 105, 106, 207, 206, 3236, 3237, 3338, 3337
101, 106, 107, 208, 207, 3237, 3238, 3339, 3338
102, 107, 108, 209, 208, 3238, 3239, 3340, 3339
103, 108, 109, 210, 209, 3239, 3240, 3341, 3340
104, 109, 110, 211, 210, 3240, 3241, 3342, 3341
105, 110, 111, 212, 211, 3241, 3242, 3343, 3342
106, 111, 112, 213, 212, 3242, 3243, 3344, 3343
107, 112, 113, 214, 213, 3243, 3244, 3345, 3344
108, 113, 114, 215, 214, 3244, 3245, 3346, 3345
109, 114, 115, 216, 215, 3245, 3246, 3347, 3346
110, 115, 116, 217, 216, 3246, 3247, 3348, 3347
111, 116, 117, 218, 217, 3247, 3248, 3349, 3348
112, 117, 118, 219, 218, 3248, 3249, 3350, 3349
113, 118, 119, 220, 219, 3249, 3250, 3351, 3350
114, 119, 120, 221, 220, 3250, 3251, 3352, 3351
115, 120, 121, 222, 221, 3251, 3252, 3353, 3352
116, 121, 122, 223, 222, 3252, 3253, 3354, 3353
117, 122, 123, 224, 223, 3253, 3254, 3355, 3354
118, 123, 124, 225, 224, 3254, 3255, 3356, 3355
119, 124, 125, 226, 225, 3255, 3256, 3357, 3356
120, 125, 126, 227, 226, 3256, 3257, 3358, 3357
121, 126, 127, 228, 227, 3257, 3258, 3359, 3358
122, 127, 128, 229, 228, 3258, 3259, 3360, 3359
123, 128, 129, 230, 229, 3259, 3260, 3361, 3360
124, 129, 130, 231, 230, 3260, 3261, 3362, 3361
125, 130, 131, 232, 231, 3261, 3262, 3363, 3362
126, 131, 132, 233, 232, 3262, 3263, 3364, 3363
127, 132, 133, 234, 233, 3263, 3264, 3365, 3364
128, 133, 134, 235, 234, 3264, 3265, 3366, 3365
129, 134, 135, 236, 235, 3265, 3266, 3367, 3366
130, 135, 136, 237, 236, 3266, 3267, 3368, 3367
131, 136, 137, 238, 237, 3267, 3268, 3369, 3368
132, 137, 138, 239, 238, 3268, 3269, 3370, 3369
133, 138, 139, 240, 239, 3269, 3270, 3371, 3370
134, 139, 140, 241, 240, 3270, 3271, 3372, 3371
135, 140, 141, 242, 241, 3271, 3272, 3373, 3372
136, 141, 142, 243, 242, 3272, 3273, 3374, 3373
137, 142, 143, 244, 243, 3273, 3274, 3375, 3374
138, 143, 144, 245, 244, 3274, 3275, 3376, 3375
139, 144, 145, 246, 245, 3275, 3276, 3377, 3376
140, 145, 146, 247, 246, 3276, 3277, 3378, 3377
141, 146, 147, 248, 247, 3277, 3278, 3379, 3378
142, 147, 148, 249, 248, 3278, 3279, 3380, 3379
143, 148, 149, 250, 249, 3279, 3280, 3381, 3380
144, 149, 150, 251, 250, 3280, 3281, 3382, 3381
145, 154, 155, 256, 255, 3285, 3286, 3387, 3386
146, 155, 156, 257, 256, 3286, 3287, 3388, 3387
147, 156, 157, 258, 257, 3287, 3288, 3389, 3388
148, 157, 158, 259, 258, 3288, 3289, 3390, 3389
149, 158, 159, 260, 259, 3289, 3290, 3391, 3390
150, 159, 160, 261, 260, 3290, 3291, 3392, 3391
151, 160, 161, 262, 261, 3291, 3292, 3393, 3392
152, 161, 162, 263, 262, 3292, 3293, 3394, 3393
153, 162, 163, 264, 263, 3293, 3294, 3395, 3394
154, 163, 164, 265, 264, 3294, 3295, 3396, 3395
155, 164, 165, 266, 265, 3295, 3296, 3397, 3396
156, 165, 166, 267, 266, 3296, 3297, 3398, 3397
157, 166, 167, 268, 267, 3297, 3298, 3399, 3398
158, 167, 168, 269, 268, 3298, 3299, 3400, 3399
159, 168, 169, 270, 269, 3299, 3300, 3401, 3400
160, 169, 170, 271, 270, 3300, 3301, 3402, 3401
161, 170, 171, 272, 271, 3301, 3302, 3403, 3402
162, 171, 172, 273, 272, 3302, 3303, 3404, 3403
163, 172, 173, 274, 273, 3303, 3304, 3405, 3404
164, 173, 174, 275, 274, 3304, 3305, 3406, 3405
165, 174, 175, 276, 275, 3305, 3306, 3407, 3406
166, 175, 176, 277, 276, 3306, 3307, 3408, 3407
167, 176, 177, 278, 277, 3307, 3308, 3409, 3408
168, 177, 178, 279, 278, 3308, 3309, 3410, 3409
169, 178, 179, 280, 279, 3309, 3310, 3411, 3410
170, 179, 180, 281, 280, 3310, 3311, 3412, 3411
171, 180, 181, 282, 281, 3311, 3312, 3413, 3412
172, 181, 182, 283, 282, 3312, 3313, 3414, 3413
173, 182, 183, 284, 283, 3313, 3314, 3415, 3414
174, 183, 184, 285, 284, 3314, 3315, 3416, 3415
175, 184, 185, 286, 285, 3315, 3316, 3417, 3416
176, 185, 186, 287, 286, 3316, 3317, 3418, 3417
177, 186, 187, 288, 287, 3317, 3318, 3419, 3418
178, 187, 188, 289, 288, 3318, 3319, 3420, 3419
179, 188, 189, 290, 289, 3319, 3320, 3421, 3420
180, 189, 190, 291, 290, 3320, 3321, 3422, 3421
181, 190, 191, 292, 291, 3321, 3322, 3423, 3422
182, 191, 192, 293, 292, 3322, 3323, 3424, 3423
183, 192, 193, 294, 293, 3323, 3324, 3425, 3424
184, 193, 194, 295, 294, 3324, 3325, 3426, 3425
185, 194, 195, 296, 295, 3325, 3326, 3427, 3426
186, 195, 196, 297, 296, 3326, 3327, 3428, 3427
187, 196, 197, 298, 297, 3327, 3328, 3429, 3428
188, 197, 198, 299, 298, 3328, 3329, 3430, 3429
189, 198, 199, 300, 299, 3329, 3330, 3431, 3430
190, 199, 200, 301, 300, 3330, 3331, 3432, 3431
191, 200, 201, 302, 301, 3331, 3332, 3433, 3432
192, 201, 202, 303, 302, 3332, 3333, 3434, 3433
193, 203, 204, 305, 304, 3334, 3335, 3436, 3435
194, 204, 205, 306, 305, 3335, 3336, 3437, 3436
195, 205, 206, 307, 306, 3336, 3337, 3438, 3437
196, 206, 207, 308, 307, 3337, 3338, 3439, 3438
197, 207, 208, 309, 308, 3338, 3339, 3440, 3439
198, 208, 209, 310, 309, 3339, 3340, 3441, 3440
199, 209, 210, 311, 310, 3340, 3341, 3442, 3441
200, 210, 211, 312, 311, 3341, 3342, 3443, 3442
201, 211, 212, 313, 312, 3342, 3343, 3444, 3443
202, 212, 213, 314, 313, 3343, 3344, 3445, 3444
203, 213, 214, 315, 314, 3344, 3345, 3446, 3445
204, 214, 215, 316, 315, 3345, 3346, 3447, 3446
205, 215, 216, 317, 316, 3346, 3347, 3448, 3447
206, 216, 217, 318, 317, 3347, 3348, 3449, 3448
207, 217, 218, 319, 318, 3348, 3349, 3450, 3449
208, 218, 219, 320, 319, 3349, 3350, 3451, 3450
209, 219, 220, 321, 320, 3350, 3351, 3452, 3451
210, 220, 221, 322, 321, 3351, 3352, 3453, 3452
211, 221, 222, 323, 322, 3352, 3353, 3454, 3453
212, 222, 223, 324, 323, 3353, 3354, 3455, 3454
213, 223, 224, 325, 324, 3354, 3355, 3456, 3455
214, 224, 225, 326, 325, 3355, 3356, 3457, 3456
215, 225, 226, 327, 326, 3356, 3357, 3458, 3457
216, 226, 227, 328, 327, 3357, 3358, 3459, 3458
217, 227, 228, 329, 328, 3358, 3359, 3460, 3459
218, 228, 229, 330, 329, 3359, 3360, 3461, 3460
219, 229, 230, 331, 330, 3360, 3361, 3462, 3461
220, 230, 231, 332, 331, 3361, 3362, 3463, 3462
221, 231, 232, 333, 332, 3362, 3363, 3464, 3463
222, 232, 233, 334, 333, 3363, 3364, 3465, 3464
223, 233, 234, 335, 334, 3364, 3365, 3466, 3465
224, 234, 235, 336, 335, 3365, 3366, 3467, 3466
225, 235, 236, 337, 336, 3366, 3367, 3468, 3467
226, 236, 237, 338, 337, 3367, 3368, 3469, 3468
227, 237, 238, 339, 338, 3368, 3369, 3470, 3469
228, 238, 239, 340, 339, 3369, 3370, 3471, 3470
229, 239, 240, 341, 340, 3370, 3371, 3472, 3471
230, 240, 241, 342, 341, 3371, 3372, 3473, 3472
231, 241, 242, 343, 342, 3372, 3373, 3474, 3473
232, 242, 243, 344, 343, 3373, 3374, 3475, 3474
233, 243, 244, 345, 344, 3374, 3375, 3476, 3475
234, 244, 245, 346, 345, 3375, 3376, 3477, 3476
235, 245, 246, 347, 346, 3376, 3377, 3478, 3477
236, 246, 247, 348, 347, 3377, 3378, 3479, 3478
237, 247, 248, 349, 348, 3378, 3379, 3480, 3479
238, 248, 249, 350, 349, 3379, 3380, 3481, 3480
239, 249, 250, 351, 350, 3380, 3381, 3482, 3481
240, 250, 251, 352, 351, 3381, 3382, 3483, 3482
241, 251, 252, 353, 352, 3382, 3383, 3484, 3483
242, 252, 253, 354, 353, 3383, 3384, 3485, 3484
243, 253, 254, 355, 354, 3384, 3385, 3486, 3485
244, 254, 255, 356, 355, 3385, 3386, 3487, 3486
245, 255, 256, 357, 356, 3386, 3387, 3488, 3487
246, 256, 257, 358, 357, 3387, 3388, 3489, 3488
247, 257, 258, 359, 358, 3388, 3389, 3490, 3489
248, 258, 259, 360, 359, 3389, 3390, 3491, 3490
249, 259, 260, 361, 360, 3390, 3391, 3492, 3491
250, 260, 261, 362, 361, 3391, 3392, 3493, 3492
251, 261, 262, 363, 362, 3392, 3393, 3494, 3493
252, 262, 263, 364, 363, 3393, 3394, 3495, 3494
253, 263, 264, 365, 364, 3394, 3395, 3496, 3495
254, 264, 265, 366, 365, 3395, 3396, 3497, 3496
255, 265, 266, 367, 366, 3396, 3397, 3498, 3497
256, 266, 267, 368, 367, 3397, 3398, 3499, 3498
257, 267, 268, 369, 368, 3398, 3399, 3500, 3499
258, 268, 269, 370, 369, 3399, 3400, 3501, 3500
259, 269, 270, 371, 370, 3400, 3401, 3502, 3501
260, 270, 271, 372, 371, 3401, 3402, 3503, 3502
261, 271, 272, 373, 372, 3402, 3403, 3504, 3503
262, 272, 273, 374, 373, 3403, 3404, 3505, 3504
263, 273, 274, 375, 374, 3404, 3405, 3506, 3505
264, 274, 275, 376, 375, 3405, 3406, 3507, 3506
265, 275, 276, 377, 376, 3406, 3407, 3508, 3507
266, 276, 277, 378, 377, 3407, 3408, 3509, 3508
267, 277, 278, 379, 378, 3408, 3409, 3510, 3509
268, 278, 279, 380, 379, 3409, 3410, 3511, 3510
269, 279, 280, 381, 380, 3410, 3411, 3512, 3511
270, 280, 281, 382, 381, 3411, 3412, 3513, 3512
271, 281, 282, 383, 382, 3412, 3413, 3514, 3513
272, 282, 283, 384, 383, 3413, 3414, 3515, 3514
273, 283, 284, 385, 384, 3414, 3415, 3516, 3515
274, 284, 285, 386, 385, 3415, 3416, 3517, 3516
275, 285, 286, 387, 386, 3416, 3417, 3518, 3517
276, 286, 287, 388, 387, 3417, 3418, 3519, 3518
277, 287, 288, 389, 388, 3418, 3419, 3520, 3519
278, 288, 289, 390, 389, 3419, 3420, 3521, 3520
279, 289, 290, 391, 390, 3420, 3421, 3522, 3521
280, 290, 291, 392, 391, 3421, 3422, 3523, 3522
281, 291, 292, 393, 392, 3422, 3423, 3524, 3523
282, 292, 293, 394, 393, 3423, 3424, 3525, 3524
283, 293, 294, 395, 394, 3424, 3425, 3526, 3525
284, 294, 295, 396, 395, 3425, 3426, 3527, 3526
285, 295, 296, 397, 396, 3426, 3427, 3528, 3527
286, 296, 297, 398, 397, 3427, 3428, 3529, 3528
287, 297, 298, 399, 398, 3428, 3429, 3530, 3529
288, 298, 299, 400, 399, 3429, 3430, 3531, 3530
289, 299, 300, 401, 400, 3430, 3431, 3532, 3531
290, 300, 301, 402, 401, 3431, 3432, 3533, 3532
291, 301, 302, 403, 402, 3432, 3433, 3534, 3533
292, 302, 303, 404, 403, 3433, 3434, 3535, 3534
293, 304, 305, 406, 405, 3435, 3436, 3537, 3536
294, 305, 306, 407, 406, 3436, 3437, 3538, 3537
295, 306, 307, 408, 407, 3437, 3438, 3539, 3538
296, 307, 308, 409, 408, 3438, 3439, 3540, 3539
297, 308, 309, 410, 409, 3439, 3440, 3541, 3540
298, 309, 310, 411, 410, 3440, 3441, 3542, 3541
299, 310, 311, 412, 411, 3441, 3442, 3543, 3542
300, 311, 312, 413, 412, 3442, 3443, 3544, 3543
301, 312, 313, 414, 413, 3443, 3444, 3545, 3544
302, 313, 314, 415, 414, 3444, 3445, 3546, 3545
303, 314, 315, 416, 415, 3445, 3446, 3547, 3546
304, 315, 316, 417, 416, 3446, 3447, 3548, 3547
305, 316, 317, 418, 417, 3447, 3448, 3549, 3548
306, 317, 318, 419, 418, 3448, 3449, 3550, 3549
307, 318, 319, 420, 419, 3449, 3450, 3551, 3550
308, 319, 320, 421, 420, 3450, 3451, 3552, 3551
309, 320, 321, 422, 421, 3451, 3452, 3553, 3552
310, 321, 322, 423, 422, 3452, 3453, 3554, 3553
311, 322, 323, 424, 423, 3453, 3454, 3555, 3554
312, 323, 324, 425, 424, 3454, 3455, 3556, 3555
313, 324, 325, 426, 425, 3455, 3456, 3557, 3556
314, 325, 326, 427, 426, 3456, 3457, 3558, 3557
315, 326, 327, 428, 427, 3457, 3458, 3559, 3558
316, 327, 328, 429, 428, 3458, 3459, 3560, 3559
317, 328, 329, 430, 429, 3459, 3460, 3561, 3560
318, 329, 330, 431, 430, 3460, 3461, 3562, 3561
319, 330, 331, 432, 431, 3461, 3462, 3563, 3562
320, 331, 332, 433, 432, 3462, 3463, 3564, 3563
321, 332, 333, 434, 433, 3463, 3464, 3565, 3564
322, 333, 334, 435, 434, 3464, 3465, 3566, 3565
323, 334, 335, 436, 435, 3465, 3466, 3567, 3566
324, 335, 336, 437, 436, 3466, 3467, 3568, 3567
325, 336, 337, 438, 437, 3467, 3468, 3569, 3568
326, 337, 338, 439, 438, 3468, 3469, 3570, 3569
327, 338, 339, 440, 439, 3469, 3470, 3571, 3570
328, 339, 340, 441, 440, 3470, 3471, 3572, 3571
329, 340, 341, 442, 441, 3471, 3472, 3573, 3572
330, 341, 342, 443, 442, 3472, 3473, 3574, 3573
331, 342, 343, 444, 443, 3473, 3474, 3575, 3574
332, 343, 344, 445, 444, 3474, 3475, 3576, 3575
333, 344, 345, 446, 445, 3475, 3476, 3577, 3576
334, 345, 346, 447, 446, 3476, 3477, 3578, 3577
335, 346, 347, 448, 447, 3477, 3478, 3579, 3578
336, 347, 348, 449, 448, 3478, 3479, 3580, 3579
337, 348, 349, 450, 449, 3479, 3480, 3581, 3580
338, 349, 350, 451, 450, 3480, 3481, 3582, 3581
339, 350, 351, 452, 451, 3481, 3482, 3583, 3582
340, 351, 352, 453, 452, 3482, 3483, 3584, 3583
341, 352, 353, 454, 453, 3483, 3484, 3585, 3584
342, 353, 354, 455, 454, 3484, 3485, 3586, 3585
343, 354, 355, 456, 455, 3485, 3486, 3587, 3586
344, 355, 356, 457, 456, 3486, 3487, 3588, 3587
345, 356, 357, 458, 457, 3487, 3488, 3589, 3588
346, 357, 358, 459, 458, 3488, 3489, 3590, 3589
347, 358, 359, 460, 459, 3489, 3490, 3591, 3590
348, 359, 360, 461, 460, 3490, 3491, 3592, 3591
349, 360, 361, 462, 461, 3491, 3492, 3593, 3592
350, 361, 362, 463, 462, 3492, 3493, 3594, 3593
351, 362, 363, 464, 463, 3493, 3494, 3595, 3594
352, 363, 364, 465, 464, 3494, 3495, 3596, 3595
353, 364, 365, 466, 465, 3495, 3496, 3597, 3596
354, 365, 366, 467, 466, 3496, 3497, 3598, 3597
355, 366, 367, 468, 467, 3497, 3498, 3599, 3598
356, 367, 368, 469, 468, 3498, 3499, 3600, 3599
357, 368, 369, 470, 469, 3499, 3500, 3601, 3600
358, 369, 370, 471, 470, 3500, 3501, 3602, 3601
359, 370, 371, 472, 471, 3501, 3502, 3603, 3602
360, 371, 372, 473, 472, 3502, 3503, 3604, 3603
361, 372, 373, 474, 473, 3503, 3504, 3605, 3604
362, 373, 374, 475, 474, 3504, 3505, 3606, 3605
363, 374, 375, 476, 475, 3505, 3506, 3607, 3606
364, 375, 376, 477, 476, 3506, 3507, 3608, 3607
365, 376, 377, 478, 477, 3507, 3508, 3609, 3608
366, 377, 378, 479, 478, 3508, 3509, 3610, 3609
367, 378, 379, 480, 479, 3509, 3510, 3611, 3610
368, 379, 380, 481, 480, 3510, 3511, 3612, 3611
369, 380, 381, 482, 481, 3511, 3512, 3613, 3612
370, 381, 382, 483, 482, 3512, 3513, 3614, 3613
371, 382, 383, 484, 483, 3513, 3514, 3615, 3614
372, 383, 384, 485, 484, 3514, 3515, 3616, 3615
373, 384, 385, 486, 485, 3515, 3516, 3617, 3616
374, 385, 386, 487, 486, 3516, 3517, 3618, 3617
375, 386, 387, 488, 487, 3517, 3518, 3619, 3618
376, 387, 388, 489, 488, 3518, 3519, 3620, 3619
377, 388, 389, 490, 489, 3519, 3520, 3621, 3620
378, 389, 390, 491, 490, 3520, 3521, 3622, 3621
379, 390, 391, 492, 491, 3521, 3522, 3623, 3622
380, 391, 392, 493, 492, 3522, 3523, 3624, 3623
381, 392, 393, 494, 493, 3523, 3524, 3625, 3624
382, 393, 394, 495, 494, 3524, 3525, 3626, 3625
383, 394, 395, 496, 495, 3525, 3526, 3627, 3626
384, 395, 396, 497, 496, 3526, 3527, 3628, 3627
385, 396, 397, 498, 497, 3527, 3528, 3629, 3628
386, 397, 398, 499, 498, 3528, 3529, 3630, 3629
387, 398, 399, 500, 499, 3529, 3530, 3631, 3630
388, 399, 400, 501, 500, 3530, 3531, 3632, 3631
389, 400, 401, 502, 501, 3531, 3532, 3633, 3632
390, 401, 402, 503, 502, 3532, 3533, 3634, 3633
391, 402, 403, 504, 503, 3533, 3534, 3635, 3634
392, 403, 404, 505, 504, 3534, 3535, 3636, 3635
393, 405, 406, 507, 506, 3536, 3537, 3638, 3637
394, 406, 407, 508, 507, 3537, 3538, 3639, 3638
395, 407, 408, 509, 508, 3538, 3539, 3640, 3639
396, 408, 409, 510, 509, 3539, 3540, 3641, 3640
397, 409, 410, 511, 510, 3540, 3541, 3642, 3641
398, 410, 411, 512, 511, 3541, 3542, 3643, 3642
399, 411, 412, 513, 512, 3542, 3543, 3644, 3643
400, 412, 413, 514, 513, 3543, 3544, 3645, 3644
401, 413, 414, 515, 514, 3544, 3545, 3646, 3645
402, 414, 415, 516, 515, 3545, 3546, 3647, 3646
403, 415, 416, 517, 516, 3546, 3547, 3648, 3647
404, 416, 417, 518, 517, 3547, 3548, 3649, 3648
405, 417, 418, 519, 518, 3548, 3549, 3650, 3649
406, 418, 419, 520, 519, 3549, 3550, 3651, 3650
407, 419, 420, 521, 520, 3550, 3551, 3652, 3651
408, 420, 421, 522, 521, 3551, 3552, 3653, 3652
409, 421, 422, 523, 522, 3552, 3553, 3654, 3653
410, 422, 423, 524, 523, 3553, 3554, 3655, 3654
411, 423, 424, 525, 524, 3554, 3555, 3656, 3655
412, 424, 425, 526, 525, 3555, 3556, 3657, 3656
413, 425, 426, 527, 526, 3556, 3557, 3658, 3657
414, 426, 427, 528, 527, 3557, 3558, 3659, 3658
415, 427, 428, 529, 528, 3558, 3559, 3660, 3659
416, 428, 429, 530, 529, 3559, 3560, 3661, 3660
417, 429, 430, 531, 530, 3560, 3561, 3662, 3661
418, 430, 431, 532, 531, 3561, 3562, 3663, 3662
419, 431, 432, 533, 532, 3562, 3563, 3664, 3663
420, 432, 433, 534, 533, 3563, 3564, 3665, 3664
421, 433, 434, 535, 534, 3564, 3565, 3666, 3665
422, 434, 435, 536, 535, 3565, 3566, 3667, 3666
423, 435, 436, 537, 536, 3566, 3567, 3668, 3667
424, 436, 437, 538, 537, 3567, 3568, 3669, 3668
425, 437, 438, 539, 538, 3568, 3569, 3670, 3669
426, 438, 439, 540, 539, 3569, 3570, 3671, 3670
427, 439, 440, 541, 540, 3570, 3571, 3672, 3671
428, 440, 441, 542, 541, 3571, 3572, 3673, 3672
429, 441, 442, 543, 542, 3572, 3573, 3674, 3673
430, 442, 443, 544, 543, 3573, 3574, 3675, 3674
431, 443, 444, 545, 544, 3574, 3575, 3676, 3675
432, 444, 445, 546, 545, 3575, 3576, 3677, 3676
433, 445, 446, 547, 546, 3576, 3577, 3678, 3677
434, 446, 447, 548, 547, 3577, 3578, 3679, 3678
435, 447, 448, 549, 548, 3578, 3579, 3680, 3679
436, 448, 449, 550, 549, 3579, 3580, 3681, 3680
437, 449, 450, 551, 550, 3580, 3581, 3682, 3681
438, 450, 451, 552, 551, 3581, 3582, 3683, 3682
439, 451, 452, 553, 552, 3582, 3583, 3684, 3683
440, 452, 453, 554, 553, 3583, 3584, 3685, 3684
441, 453, 454, 555, 554, 3584, 3585, 3686, 3685
442, 454, 455, 556, 555, 3585, 3586, 3687, 3686
443, 455, 456, 557, 556, 3586, 3587, 3688, 3687
444, 456, 457, 558, 557, 3587, 3588, 3689, 3688
445, 457, 458, 559, 558, 3588, 3589, 3690, 3689
446, 458, 459, 560, 559, 3589, 3590, 3691, 3690
447, 459, 460, 561, 560, 3590, 3591, 3692, 3691
448, 460, 461, 562, 561, 3591, 3592, 3693, 3692
449, 461, 462, 563, 562, 3592, 3593, 3694, 3693
450, 462, 463, 564, 563, 3593, 3594, 3695, 3694
451, 463, 464, 565, 564, 3594, 3595, 3696, 3695
452, 464, 465, 566, 565, 3595, 3596, 3697, 3696
453, 465, 466, 567, 566, 3596, 3597, 3698, 3697
454, 466, 467, 568, 567, 3597, 3598, 3699, 3698
455, 467, 468, 569, 568, 3598, 3599, 3700, 3699
456, 468, 469, 570, 569, 3599, 3600, 3701, 3700
457, 469, 470, 571, 570, 3600, 3601, 3702, 3701
458, 470, 471, 572, 571, 3601, 3602, 3703, 3702
459, 471, 472, 573, 572, 3602, 3603, 3704, 3703
460, 472, 473, 574, 573, 3603, 3604, 3705, 3704
461, 473, 474, 575, 574, 3604, 3605, 3706, 3705
462, 474, 475, 576, 575, 3605, 3606, 3707, 3706
463, 475, 476, 577, 576, 3606, 3607, 3708, 3707
464, 476, 477, 578, 577, 3607, 3608, 3709, 3708
465, 477, 478, 579, 578, 3608, 3609, 3710, 3709
466, 478, 479, 580, 579, 3609, 3610, 3711, 3710
467, 479, 480, 581, 580, 3610, 3611, 3712, 3711
468, 480, 481, 582, 581, 3611, 3612, 3713, 3712
469, 481, 482, 583, 582, 3612, 3613, 3714, 3713
470, 482, 483, 584, 583, 3613, 3614, 3715, 3714
471, 483, 484, 585, 584, 3614, 3615, 3716, 3715
472, 484, 485, 586, 585, 3615, 3616, 3717, 3716
473, 485, 486, 587, 586, 3616, 3617, 3718, 3717
474, 486, 487, 588, 587, 3617, 3618, 3719, 3718
475, 487, 488, 589, 588, 3618, 3619, 3720, 3719
476, 488, 489, 590, 589, 3619, 3620, 3721, 3720
477, 489, 490, 591, 590, 3620, 3621, 3722, 3721
478, 490, 491, 592, 591, 3621, 3622, 3723, 3722
479, 491, 492, 593, 592, 3622, 3623, 3724, 3723
480, 492, 493, 594, 593, 3623, 3624, 3725, 3724
481, 493, 494, 595, 594, 3624, 3625, 3726, 3725
482, 494, 495, 596, 595, 3625, 3626, 3727, 3726
483, 495, 496, 597, 596, 3626, 3627, 3728, 3727
484, 496, 497, 598, 597, 3627, 3628, 3729, 3728
485, 497, 498, 599, 598, 3628, 3629, 3730, 3729
486, 498, 499, 600, 599, 3629, 3630, 3731, 3730
487, 499, 500, 601, 600, 3630, 3631, 3732, 3731
488, 500, 501, 602, 601, 3631, 3632, 3733, 3732
489, 501, 502, 603, 602, 3632, 3633, 3734, 3733
490, 502, 503, 604, 603, 3633, 3634, 3735, 3734
491, 503, 504, 605, 604, 3634, 3635, 3736, 3735
492, 504, 505, 606, 605, 3635, 3636, 3737, 3736
493, 506, 507, 608, 607, 3637, 3638, 3739, 3738
494, 507, 508, 609, 608, 3638, 3639, 3740, 3739
495, 508, 509, 610, 609, 3639, 3640, 3741, 3740
496, 509, 510, 611, 610, 3640, 3641, 3742, 3741
497, 510, 511, 612, 611, 3641, 3642, 3743, 3742
498, 511, 512, 613, 612, 3642, 3643, 3744, 3743
499, 512, 513, 614, 613, 3643, 3644, 3745, 3744
500, 513, 514, 615, 614, 3644, 3645, 3746, 3745
501, 514, 515, 616, 615, 3645, 3646, 3747, 3746
502, 515, 516, 617, 616, 3646, 3647, 3748, 3747
503, 516, 517, 618, 617, 3647, 3648, 3749, 3748
504, 517, 518, 619, 618, 3648, 3649, 3750, 3749
505, 518, 519, 620, 619, 3649, 3650, 3751, 3750
506, 519, 520, 621, 620, 3650, 3651, 3752, 3751
507, 520, 521, 622, 621, 3651, 3652, 3753, 3752
508, 521, 522, 623, 622, 3652, 3653, 3754, 3753
509, 522, 523, 624, 623, 3653, 3654, 3755, 3754
510, 523, 524, 625, 624, 3654, 3655, 3756, 3755
511, 524, 525, 626, 625, 3655, 3656, 3757, 3756
512, 525, 526, 627, 626, 3656, 3657, 3758, 3757
513, 526, 527, 628, 627, 3657, 3658, 3759, 3758
514, 527, 528, 629, 628, 3658, 3659, 3760, 3759
515, 528, 529, 630, 629, 3659, 3660, 3761, 3760
516, 529, 530, 631, 630, 3660, 3661, 3762, 3761
517, 530, 531, 632, 631, 3661, 3662, 3763, 3762
518, 531, 532, 633, 632, 3662, 3663, 3764, 3763
519, 532, 533, 634, 633, 3663, 3664, 3765, 3764
520, 533, 534, 635, 634, 3664, 3665, 3766, 3765
521, 534, 535, 636, 635, 3665, 3666, 3767, 3766
522, 535, 536, 637, 636, 3666, 3667, 3768, 3767
523, 536, 537, 638, 637, 3667, 3668, 3769, 3768
524, 537, 538, 639, 638, 3668, 3669, 3770, 3769
525, 538, 539, 640, 639, 3669, 3670, 3771, 3770
526, 539, 540, 641, 640, 3670, 3671, 3772, 3771
527, 540, 541, 642, 641, 3671, 3672, 3773, 3772
528, 541, 542, 643, 642, 3672, 3673, 3774, 3773
529, 542, 543, 644, 643, 3673, 3674, 3775, 3774
530, 543, 544, 645, 644, 3674, 3675, 3776, 3775
531, 544, 545, 646, 645, 3675, 3676, 3777, 3776
532, 545, 546, 647, 646, 3676, 3677, 3778, 3777
533, 546, 547, 648, 647, 3677, 3678, 3779, 3778
534, 547, 548, 649, 648, 3678, 3679, 3780, 3779
535, 548, 549, 650, 649, 3679, 3680, 3781, 3780
536, 549, 550, 651, 650, 3680, 3681, 3782, 3781
537, 550, 551, 652, 651, 3681, 3682, 3783, 3782
538, 551, 552, 653, 652, 3682, 3683, 3784, 3783
539, 552, 553, 654, 653, 3683, 3684, 3785, 3784
540, 553, 554, 655, 654, 3684, 3685, 3786, 3785
541, 554, 555, 656, 655, 3685, 3686, 3787, 3786
542, 555, 556, 657, 656, 3686, 3687, 3788, 3787
543, 556, 557, 658, 657, 3687, 3688, 3789, 3788
544, 557, 558, 659, 658, 3688, 3689, 3790, 3789
545, 558, 559, 660, 659, 3689, 3690, 3791, 3790
546, 559, 560, 661, 660, 3690, 3691, 3792, 3791
547, 560, 561, 662, 661, 3691, 3692, 3793, 3792
548, 561, 562, 663, 662, 3692, 3693, 3794, 3793
549, 562, 563, 664, 663, 3693, 3694, 3795, 3794
550, 563, 564, 665, 664, 3694, 3695, 3796, 3795
551, 564, 565, 666, 665, 3695, 3696, 3797, 3796
552, 565, 566, 667, 666, 3696, 3697, 3798, 3797
553, 566, 567, 668, 667, 3697, 3698, 3799, 3798
554, 567, 568, 669, 668, 3698, 3699, 3800, 3799
555, 568, 569, 670, 669, 3699, 3700, 3801, 3800
556, 569, 570, 671, 670, 3700, 3701, 3802, 3801
557, 570, 571, 672, 671, 3701, 3702, 3803, 3802
558, 571, 572, 673, 672, 3702, 3703, 3804, 3803
559, 572, 573, 674, 673, 3703, 3704, 3805, 3804
560, 573, 574, 675, 674, 3704, 3705, 3806, 3805
561, 574, 575, 676, 675, 3705, 3706, 3807, 3806
562, 575, 576, 677, 676, 3706, 3707, 3808, 3807
563, 576, 577, 678, 677, 3707, 3708, 3809, 3808
564, 577, 578, 679, 678, 3708, 3709, 3810, 3809
565, 578, 579, 680, 679, 3709, 3710, 3811, 3810
566, 579, 580, 681, 680, 3710, 3711, 3812, 3811
567, 580, 581, 682, 681, 3711, 3712, 3813, 3812
568, 581, 582, 683, 682, 3712, 3713, 3814, 3813
569, 582, 583, 684, 683, 3713, 3714, 3815, 3814
570, 583, 584, 685, 684, 3714, 3715, 3816, 3815
571, 584, 585, 686, 685, 3715, 3716, 3817, 3816
572, 585, 586, 687, 686, 3716, 3717, 3818, 3817
573, 586, 587, 688, 687, 3717, 3718, 3819, 3818
574, 587, 588, 689, 688, 3718, 3719, 3820, 3819
575, 588, 589, 690, 689, 3719, 3720, 3821, 3820
576, 589, 590, 691, 690, 3720, 3721, 3822, 3821
577, 590, 591, 692, 691, 3721, 3722, 3823, 3822
578, 591, 592, 693, 692, 3722, 3723, 3824, 3823
579, 592, 593, 694, 693, 3723, 3724, 3825, 3824
580, 593, 594, 695, 694, 3724, 3725, 3826, 3825
581, 594, 595, 696, 695, 3725, 3726, 3827, 3826
582, 595, 596, 697, 696, 3726, 3727, 3828, 3827
583, 596, 597, 698, 697, 3727, 3728, 3829, 3828
584, 597, 598, 699, 698, 3728, 3729, 3830, 3829
585, 598, 599, 700, 699, 3729, 3730, 3831, 3830
586, 599, 600, 701, 700, 3730, 3731, 3832, 3831
587, 600, 601, 702, 701, 3731, 3732, 3833, 3832
588, 601, 602, 703, 702, 3732, 3733, 3834, 3833
589, 602, 603, 704, 703, 3733, 3734, 3835, 3834
590, 603, 604, 705, 704, 3734, 3735, 3836, 3835
591, 604, 605, 706, 705, 3735, 3736, 3837, 3836
592, 605, 606, 707, 706, 3736, 3737, 3838, 3837
593, 607, 608, 709, 708, 3738, 3739, 3840, 3839
594, 608, 609, 710, 709, 3739, 3740, 3841, 3840
595, 609, 610, 711, 710, 3740, 3741, 3842, 3841
596, 610, 611, 712, 711, 3741, 3742, 3843, 3842
597, 611, 612, 713, 712, 3742, 3743, 3844, 3843
598, 612, 613, 714, 713, 3743, 3744, 3845, 3844
599, 613, 614, 715, 714, 3744, 3745, 3846, 3845
600, 614, 615, 716, 715, 3745, 3746, 3847, 3846
601, 615, 616, 717, 716, 3746, 3747, 3848, 3847
602, 616, 617, 718, 717, 3747, 3748, 3849, 3848
603, 617, 618, 719, 718, 3748, 3749, 3850, 3849
604, 618, 619, 720, 719, 3749, 3750, 3851, 3850
605, 619, 620, 721, 720, 3750, 3751, 3852, 3851
606, 620, 621, 722, 721, 3751, 3752, 3853, 3852
607, 621, 622, 723, 722, 3752, 3753, 3854, 3853
608, 622, 623, 724, 723, 3753, 3754, 3855, 3854
609, 623, 624, 725, 724, 3754, 3755, 3856, 3855
610, 624, 625, 726, 725, 3755, 3756, 3857, 3856
611, 625, 626, 727, 726, 3756, 3757, 3858, 3857
612, 626, 627, 728, 727, 3757, 3758, 3859, 3858
613, 627, 628, 729, 728, 3758, 3759, 3860, 3859
614, 628, 629, 730, 729, 3759, 3760, 3861, 3860
615, 629, 630, 731, 730, 3760, 3761, 3862, 3861
616, 630, 631, 732, 731, 3761, 3762, 3863, 3862
617, 631, 632, 733, 732, 3762, 3763, 3864, 3863
618, 632, 633, 734, 733, 3763, 3764, 3865, 3864
619, 633, 634, 735, 734, 3764, 3765, 3866, 3865
620, 634, 635, 736, 735, 3765, 3766, 3867, 3866
621, 635, 636, 737, 736, 3766, 3767, 3868, 3867
622, 636, 637, 738, 737, 3767, 3768, 3869, 3868
623, 637, 638, 739, 738, 3768, 3769, 3870, 3869
624, 638, 639, 740, 739, 3769, 3770, 3871, 3870
625, 639, 640, 741, 740, 3770, 3771, 3872, 3871
626, 640, 641, 742, 741, 3771, 3772, 3873, 3872
627, 641, 642, 743, 742, 3772, 3773, 3874, 3873
628, 642, 643, 744, 743, 3773, 3774, 3875, 3874
629, 643, 644, 745, 744, 3774, 3775, 3876, 3875
630, 644, 645, 746, 745, 3775, 3776, 3877, 3876
631, 645, 646, 747, 746, 3776, 3777, 3878, 3877
632, 646, 647, 748, 747, 3777, 3778, 3879, 3878
633, 647, 648, 749, 748, 3778, 3779, 3880, 3879
634, 648, 649, 750, 749, 3779, 3780, 3881, 3880
635, 649, 650, 751, 750, 3780, 3781, 3882, 3881
636, 650, 651, 752, 751, 3781, 3782, 3883, 3882
637, 651, 652, 753, 752, 3782, 3783, 3884, 3883
638, 652, 653, 754, 753, 3783, 3784, 3885, 3884
639, 653, 654, 755, 754, 3784, 3785, 3886, 3885
640, 654, 655, 756, 755, 3785, 3786, 3887, 3886
641, 655, 656, 757, 756, 3786, 3787, 3888, 3887
642, 656, 657, 758, 757, 3787, 3788, 3889, 3888
643, 657, 658, 759, 758, 3788, 3789, 3890, 3889
644, 658, 659, 760, 759, 3789, 3790, 3891, 3890
645, 659, 660, 761, 760, 3790, 3791, 3892, 3891
646, 660, 661, 762, 761, 3791, 3792, 3893, 3892
647, 661, 662, 763, 762, 3792, 3793, 3894, 3893
648, 662, 663, 764, 763, 3793, 3794, 3895, 3894
649, 663, 664, 765, 764, 3794, 3795, 3896, 3895
650, 664, 665, 766, 765, 3795, 3796, 3897, 3896
651, 665, 666, 767, 766, 3796, 3797, 3898, 3897
652, 666, 667, 768, 767, 3797, 3798, 3899, 3898
653, 667, 668, 769, 768, 3798, 3799, 3900, 3899
654, 668, 669, 770, 769, 3799, 3800, 3901, 3900
655, 669, 670, 771, 770, 3800, 3801, 3902, 3901
656, 670, 671, 772, 771, 3801, 3802, 3903, 3902
657, 671, 672, 773, 772, 3802, 3803, 3904, 3903
658, 672, 673, 774, 773, 3803, 3804, 3905, 3904
659, 673, 674, 775, 774, 3804, 3805, 3906, 3905
660, 674, 675, 776, 775, 3805, 3806, 3907, 3906
661, 675, 676, 777, 776, 3806, 3807, 3908, 3907
662, 676, 677, 778, 777, 3807, 3808, 3909, 3908
663, 677, 678, 779, 778, 3808, 3809, 3910, 3909
664, 678, 679, 780, 779, 3809, 3810, 3911, 3910
665, 679, 680, 781, 780, 3810, 3811, 3912, 3911
666, 680, 681, 782, 781, 3811, 3812, 3913, 3912
667, 681, 682, 783, 782, 3812, 3813, 3914, 3913
668, 682, 683, 784, 783, 3813, 3814, 3915, 3914
669, 683, 684, 785, 784, 3814, 3815, 3916, 3915
670, 684, 685, 786, 785, 3815, 3816, 3917, 3916
671, 685, 686, 787, 786, 3816, 3817, 3918, 3917
672, 686, 687, 788, 787, 3817, 3818, 3919, 3918
673, 687, 688, 789, 788, 3818, 3819, 3920, 3919
674, 688, 689, 790, 789, 3819, 3820, 3921, 3920
675, 689, 690, 791, 790, 3820, 3821, 3922, 3921
676, 690, 691, 792, 791, 3821, 3822, 3923, 3922
677, 691, 692, 793, 792, 3822, 3823, 3924, 3923
678, 692, 693, 794, 793, 3823, 3824, 3925, 3924
679, 693, 694, 795, 794, 3824, 3825, 3926, 3925
680, 694, 695, 796, 795, 3825, 3826, 3927, 3926
681, 695, 696, 797, 796, 3826, 3827, 3928, 3927
682, 696, 697, 798, 797, 3827, 3828, 3929, 3928
683, 697, 698, 799, 798, 3828, 3829, 3930, 3929
684, 698, 699, 800, 799, 3829, 3830, 3931, 3930
685, 699, 700, 801, 800, 3830, 3831, 3932, 3931
686, 700, 701, 802, 801, 3831, 3832, 3933, 3932
687, 701, 702, 803, 802, 3832, 3833, 3934, 3933
688, 702, 703, 804, 803, 3833, 3834, 3935, 3934
689, 703, 704, 805, 804, 3834, 3835, 3936, 3935
690, 704, 705, 806, 805, 3835, 3836, 3937, 3936
691, 705, 706, 807, 806, 3836, 3837, 3938, 3937
692, 706, 707, 808, 807, 3837, 3838, 3939, 3938
693, 708, 709, 810, 809, 3839, 3840, 3941, 3940
694, 709, 710, 811, 810, 3840, 3841, 3942, 3941
695, 710, 711, 812, 811, 3841, 3842, 3943, 3942
696, 711, 712, 813, 812, 3842, 3843, 3944, 3943
697, 712, 713, 814, 813, 3843, 3844, 3945, 3944
698, 713, 714, 815, 814, 3844, 3845, 3946, 3945
699, 714, 715, 816, 815, 3845, 3846, 3947, 3946
700, 715, 716, 817, 816, 3846, 3847, 3948, 3947
701, 716, 717, 818, 817, 3847, 3848, 3949, 3948
702, 717, 718, 819, 818, 3848, 3849, 3950, 3949
703, 718, 719, 820, 819, 3849, 3850, 3951, 3950
704, 719, 720, 821, 820, 3850, 3851, 3952, 3951
705, 720, 721, 822, 821, 3851, 3852, 3953, 3952
706, 721, 722, 823, 822, 3852, 3853, 3954, 3953
707, 722, 723, 824, 823, 3853, 3854, 3955, 3954
708, 723, 724, 825, 824, 3854, 3855, 3956, 3955
709, 724, 725, 826, 825, 3855, 3856, 3957, 3956
710, 725, 726, 827, 826, 3856, 3857, 3958, 3957
711, 726, 727, 828, 827, 3857, 3858, 3959, 3958
712, 727, 728, 829, 828, 3858, 3859, 3960, 3959
713, 728, 729, 830, 829, 3859, 3860, 3961, 3960
714, 729, 730, 831, 830, 3860, 3861, 3962, 3961
715, 730, 731, 832, 831, 3861, 3862, 3963, 3962
716, 731, 732, 833, 832, 3862, 3863, 3964, 3963
717, 732, 733, 834, 833, 3863, 3864, 3965, 3964
718, 733, 734, 835, 834, 3864, 3865, 3966, 3965
719, 734, 735, 836, 835, 3865, 3866, 3967, 3966
720, 735, 736, 837, 836, 3866, 3867, 3968, 3967
721, 736, 737, 838, 837, 3867, 3868, 3969, 3968
722, 737, 738, 839, 838, 3868, 3869, 3970, 3969
723, 738, 739, 840, 839, 3869, 3870, 3971, 3970
724, 739, 740, 841, 840, 3870, 3871, 3972, 3971
725, 740, 741, 842, 841, 3871, 3872, 3973, 3972
726, 741, 742, 843, 842, 3872, 3873, 3974, 3973
727, 742, 743, 844, 843, 3873, 3874, 3975, 3974
728, 743, 744, 845, 844, 3874, 3875, 3976, 3975
729, 744, 745, 846, 845, 3875, 3876, 3977, 3976
730, 745, 746, 847, 846, 3876, 3877, 3978, 3977
731, 746, 747, 848, 847, 3877, 3878, 3979, 3978
732, 747, 748, 849, 848, 3878, 3879, 3980, 3979
733, 748, 749, 850, 849, 3879, 3880, 3981, 3980
734, 749, 750, 851, 850, 3880, 3881, 3982, 3981
735, 750, 751, 852, 851, 3881, 3882, 3983, 3982
736, 751, 752, 853, 852, 3882, 3883, 3984, 3983
737, 752, 753, 854, 853, 3883, 3884, 3985, 3984
738, 753, 754, 855, 854, 3884, 3885, 3986, 3985
739, 754, 755, 856, 855, 3885, 3886, 3987, 3986
740, 755, 756, 857, 856, 3886, 3887, 3988, 3987
741, 756, 757, 858, 857, 3887, 3888, 3989, 3988
742, 757, 758, 859, 858, 3888, 3889, 3990, 3989
743, 758, 759, 860, 859, 3889, 3890, 3991, 3990
744, 759, 760, 861, 860, 3890, 3891, 3992, 3991
745, 760, 761, 862, 861, 3891, 3892, 3993, 3992
746, 761, 762, 863, 862, 3892, 3893, 3994, 3993
747, 762, 763, 864, 863, 3893, 3894, 3995, 3994
748, 763, 764, 865, 864, 3894, 3895, 3996, 3995
749, 764, 765, 866, 865, 3895, 3896, 3997, 3996
750, 765, 766, 867, 866, 3896, 3897, 3998, 3997
751, 766, 767, 868, 867, 3897, 3898, 3999, 3998
752, 767, 768, 869, 868, 3898, 3899, 4000, 3999
753, 768, 769, 870, 869, 3899, 3900, 4001, 4000
754, 769, 770, 871, 870, 3900, 3901, 4002, 4001
755, 770, 771, 872, 871, 3901, 3902, 4003, 4002
756, 771, 772, 873, 872, 3902, 3903, 4004, 4003
757, 772, 773, 874, 873, 3903, 3904, 4005, 4004
758, 773, 774, 875, 874, 3904, 3905, 4006, 4005
759, 774, 775, 876, 875, 3905, 3906, 4007, 4006
760, 775, 776, 877, 876, 3906, 3907, 4008, 4007
761, 776, 777, 878, 877, 3907, 3908, 4009, 4008
762, 777, 778, 879, 878, 3908, 3909, 4010, 4009
763, 778, 779, 880, 879, 3909, 3910, 4011, 4010
764, 779, 780, 881, 880, 3910, 3911, 4012, 4011
765, 780, 781, 882, 881, 3911, 3912, 4013, 4012
766, 781, 782, 883, 882, 3912, 3913, 4014, 4013
767, 782, 783, 884, 883, 3913, 3914, 4015, 4014
768, 783, 784, 885, 884, 3914, 3915, 4016, 4015
769, 784, 785, 886, 885, 3915, 3916, 4017, 4016
770, 785, 786, 887, 886, 3916, 3917, 4018, 4017
771, 786, 787, 888, 887, 3917, 3918, 4019, 4018
772, 787, 788, 889, 888, 3918, 3919, 4020, 4019
773, 788, 789, 890, 889, 3919, 3920, 4021, 4020
774, 789, 790, 891, 890, 3920, 3921, 4022, 4021
775, 790, 791, 892, 891, 3921, 3922, 4023, 4022
776, 791, 792, 893, 892, 3922, 3923, 4024, 4023
777, 792, 793, 894, 893, 3923, 3924, 4025, 4024
778, 793, 794, 895, 894, 3924, 3925, 4026, 4025
779, 794, 795, 896, 895, 3925, 3926, 4027, 4026
780, 795, 796, 897, 896, 3926, 3927, 4028, 4027
781, 796, 797, 898, 897, 3927, 3928, 4029, 4028
782, 797, 798, 899, 898, 3928, 3929, 4030, 4029
783, 798, 799, 900, 899, 3929, 3930, 4031, 4030
784, 799, 800, 901, 900, 3930, 3931, 4032, 4031
785, 800, 801, 902, 901, 3931, 3932, 4033, 4032
786, 801, 802, 903, 902, 3932, 3933, 4034, 4033
787, 802, 803, 904, 903, 3933, 3934, 4035, 4034
788, 803, 804, 905, 904, 3934, 3935, 4036, 4035
789, 804, 805, 906, 905, 3935, 3936, 4037, 4036
790, 805, 806, 907, 906, 3936, 3937, 4038, 4037
791, 806, 807, 908, 907, 3937, 3938, 4039, 4038
792, 807, 808, 909, 908, 3938, 3939, 4040, 4039
793, 809, 810, 911, 910, 3940, 3941, 4042, 4041
794, 810, 811, 912, 911, 3941, 3942, 4043, 4042
795, 811, 812, 913, 912, 3942, 3943, 4044, 4043
796, 812, 813, 914, 913, 3943, 3944, 4045, 4044
797, 813, 814, 915, 914, 3944, 3945, 4046, 4045
798, 814, 815, 916, 915, 3945, 3946, 4047, 4046
799, 815, 816, 917, 916, 3946, 3947, 4048, 4047
800, 816, 817, 918, 917, 3947, 3948, 4049, 4048
801, 817, 818, 919, 918, 3948, 3949, 4050, 4049
802, 818, 819, 920, 919, 3949, 3950, 4051, 4050
803, 819, 820, 921, 920, 3950, 3951, 4052, 4051
804, 820, 821, 922, 921, 3951, 3952, 4053, 4052
805, 821, 822, 923, 922, 3952, 3953, 4054, 4053
806, 822, 823, 924, 923, 3953, 3954, 4055, 4054
807, 823, 824, 925, 924, 3954, 3955, 4056, 4055
808, 824, 825, 926, 925, 3955, 3956, 4057, 4056
809, 825, 826, 927, 926, 3956, 3957, 4058, 4057
810, 826, 827, 928, 927, 3957, 3958, 4059, 4058
811, 827, 828, 929, 928, 3958, 3959, 4060, 4059
812, 828, 829, 930, 929, 3959, 3960, 4061, 4060
813, 829, 830, 931, 930, 3960, 3961, 4062, 4061
814, 830, 831, 932, 931, 3961, 3962, 4063, 4062
815, 831, 832, 933, 932, 3962, 3963, 4064, 4063
816, 832, 833, 934, 933, 3963, 3964, 4065, 4064
817, 833, 834, 935, 934, 3964, 3965, 4066, 4065
818, 834, 835, 936, 935, 3965, 3966, 4067, 4066
819, 835, 836, 937, 936, 3966, 3967, 4068, 4067
820, 836, 837, 938, 937, 3967, 3968, 4069, 4068
821, 837, 838, 939, 938, 3968, 3969, 4070, 4069
822, 838, 839, 940, 939, 3969, 3970, 4071, 4070
823, 839, 840, 941, 940, 3970, 3971, 4072, 4071
824, 840, 841, 942, 941, 3971, 3972, 4073, 4072
825, 841, 842, 943, 942, 3972, 3973, 4074, 4073
826, 842, 843, 944, 943, 3973, 3974, 4075, 4074
827, 843, 844, 945, 944, 3974, 3975, 4076, 4075
828, 844, 845, 946, 945, 3975, 3976, 4077, 4076
829, 845, 846, 947, 946, 3976, 3977, 4078, 4077
830, 846, 847, 948, 947, 3977, 3978, 4079, 4078
831, 847, 848, 949, 948, 3978, 3979, 4080, 4079
832, 848, 849, 950, 949, 3979, 3980, 4081, 4080
833, 849, 850, 951, 950, 3980, 3981, 4082, 4081
834, 850, 851, 952, 951, 3981, 3982, 4083, 4082
835, 851, 852, 953, 952, 3982, 3983, 4084, 4083
836, 852, 853, 954, 953, 3983, 3984, 4085, 4084
837, 853, 854, 955, 954, 3984, 3985, 4086, 4085
838, 854, 855, 956, 955, 3985, 3986, 4087, 4086
839, 855, 856, 957, 956, 3986, 3987, 4088, 4087
840, 856, 857, 958, 957, 3987, 3988, 4089, 4088
841, 857, 858, 959, 958, 3988, 3989, 4090, 4089
842, 858, 859, 960, 959, 3989, 3990, 4091, 4090
843, 859, 860, 961, 960, 3990, 3991, 4092, 4091
844, 860, 861, 962, 961, 3991, 3992, 4093, 4092
845, 861, 862, 963, 962, 3992, 3993, 4094, 4093
846, 862, 863, 964, 963, 3993, 3994, 4095, 4094
847, 863, 864, 965, 964, 3994, 3995, 4096, 4095
848, 864, 865, 966, 965, 3995, 3996, 4097, 4096
849, 865, 866, 967, 966, 3996, 3997, 4098, 4097
850, 866, 867, 968, 967, 3997, 3998, 4099, 4098
851, 867, 868, 969, 968, 3998, 3999, 4100, 4099
852, 868, 869, 970, 969, 3999, 4000, 4101, 4100
853, 869, 870, 971, 970, 4000, 4001, 4102, 4101
854, 870, 871, 972, 971, 4001, 4002, 4103, 4102
855, 871, 872, 973, 972, 4002, 4003, 4104, 4103
856, 872, 873, 974, 973, 4003, 4004, 4105, 4104
857, 873, 874, 975, 974, 4004, 4005, 4106, 4105
858, 874, 875, 976, 975, 4005, 4006, 4107, 4106
859, 875, 876, 977, 976, 4006, 4007, 4108, 4107
860, 876, 877, 978, 977, 4007, 4008, 4109, 4108
861, 877, 878, 979, 978, 4008, 4009, 4110, 4109
862, 878, 879, 980, 979, 4009, 4010, 4111, 4110
863, 879, 880, 981, 980, 4010, 4011, 4112, 4111
864, 880, 881, 982, 981, 4011, 4012, 4113, 4112
865, 881, 882, 983, 982, 4012, 4013, 4114, 4113
866, 882, 883, 984, 983, 4013, 4014, 4115, 4114
867, 883, 884, 985, 984, 4014, 4015, 4116, 4115
868, 884, 885, 986, 985, 4015, 4016, 4117, 4116
869, 885, 886, 987, 986, 4016, 4017, 4118, 4117
870, 886, 887, 988, 987, 4017, 4018, 4119, 4118
871, 887, 888, 989, 988, 4018, 4019, 4120, 4119
872, 888, 889, 990, 989, 4019, 4020, 4121, 4120
873, 889, 890, 991, 990, 4020, 4021, 4122, 4121
874, 890, 891, 992, 991, 4021, 4022, 4123, 4122
875, 891, 892, 993, 992, 4022, 4023, 4124, 4123
876, 892, 893, 994, 993, 4023, 4024, 4125, 4124
877, 893, 894, 995, 994, 4024, 4025, 4126, 4125
878, 894, 895, 996, 995, 4025, 4026, 4127, 4126
879, 895, 896, 997, 996, 4026, 4027, 4128, 4127
880, 896, 897, 998, 997, 4027, 4028, 4129, 4128
881, 897, 898, 999, 998, 4028, 4029, 4130, 4129
882, 898, 899, 1000, 999, 4029, 4030, 4131, 4130
883, 899, 900, 1001, 1000, 4030, 4031, 4132, 4131
884, 900, 901, 1002, 1001, 4031, 4032, 4133, 4132
885, 901, 902, 1003, 1002, 4032, 4033, 4134, 4133
886, 902, 903, 1004, 1003, 4033, 4034, 4135, 4134
887, 903, 904, 1005, 1004, 4034, 4035, 4136, 4135
888, 904, 905, 1006, 1005, 4035, 4036, 4137, 4136
889, 905, 906, 1007, 1006, 4036, 4037, 4138, 4137
890, 906, 907, 1008, 1007, 4037, 4038, 4139, 4138
891, 907, 908, 1009, 1008, 4038, 4039, 4140, 4139
892, 908, 909, 1010, 1009, 4039, 4040, 4141, 4140
893, 910, 911, 1012, 1011, 4041, 4042, 4143, 4142
894, 911, 912, 1013, 1012, 4042, 4043, 4144, 4143
895, 912, 913, 1014, 1013, 4043, 4044, 4145, 4144
896, 913, 914, 1015, 1014, 4044, 4045, 4146, 4145
897, 914, 915, 1016, 1015, 4045, 4046, 4147, 4146
898, 915, 916, 1017, 1016, 4046, 4047, 4148, 4147
899, 916, 917, 1018, 1017, 4047, 4048, 4149, 4148
900, 917, 918, 1019, 1018, 4048, 4049, 4150, 4149
901, 918, 919, 1020, 1019, 4049, 4050, 4151, 4150
902, 919, 920, 1021, 1020, 4050, 4051, 4152, 4151
903, 920, 921, 1022, 1021, 4051, 4052, 4153, 4152
904, 921, 922, 1023, 1022, 4052, 4053, 4154, 4153
905, 922, 923, 1024, 1023, 4053, 4054, 4155, 4154
906, 923, 924, 1025, 1024, 4054, 4055, 4156, 4155
907, 924, 925, 1026, 1025, 4055, 4056, 4157, 4156
908, 925, 926, 1027, 1026, 4056, 4057, 4158, 4157
909, 926, 927, 1028, 1027, 4057, 4058, 4159, 4158
910, 927, 928, 1029, 1028, 4058, 4059, 4160, 4159
911, 928, 929, 1030, 1029, 4059, 4060, 4161, 4160
912, 929, 930, 1031, 1030, 4060, 4061, 4162, 4161
913, 930, 931, 1032, 1031, 4061, 4062, 4163, 4162
914, 931, 932, 1033, 1032, 4062, 4063, 4164, 4163
915, 932, 933, 1034, 1033, 4063, 4064, 4165, 4164
916, 933, 934, 1035, 1034, 4064, 4065, 4166, 4165
917, 934, 935, 1036, 1035, 4065, 4066, 4167, 4166
918, 935, 936, 1037, 1036, 4066, 4067, 4168, 4167
919, 936, 937, 1038, 1037, 4067, 4068, 4169, 4168
920, 937, 938, 1039, 1038, 4068, 4069, 4170, 4169
921, 938, 939, 1040, 1039, 4069, 4070, 4171, 4170
922, 939, 940, 1041, 1040, 4070, 4071, 4172, 4171
923, 940, 941, 1042, 1041, 4071, 4072, 4173, 4172
924, 941, 942, 1043, 1042, 4072, 4073, 4174, 4173
925, 942, 943, 1044, 1043, 4073, 4074, 4175, 4174
926, 943, 944, 1045, 1044, 4074, 4075, 4176, 4175
927, 944, 945, 1046, 1045, 4075, 4076, 4177, 4176
928, 945, 946, 1047, 1046, 4076, 4077, 4178, 4177
929, 946, 947, 1048, 1047, 4077, 4078, 4179, 4178
930, 947, 948, 1049, 1048, 4078, 4079, 4180, 4179
931, 948, 949, 1050, 1049, 4079, 4080, 4181, 4180
932, 949, 950, 1051, 1050, 4080, 4081, 4182, 4181
933, 950, 951, 1052, 1051, 4081, 4082, 4183, 4182
934, 951, 952, 1053, 1052, 4082, 4083, 4184, 4183
935, 952, 953, 1054, 1053, 4083, 4084, 4185, 4184
936, 953, 954, 1055, 1054, 4084, 4085, 4186, 4185
937, 954, 955, 1056, 1055, 4085, 4086, 4187, 4186
938, 955, 956, 1057, 1056, 4086, 4087, 4188, 4187
939, 956, 957, 1058, 1057, 4087, 4088, 4189, 4188
940, 957, 958, 1059, 1058, 4088, 4089, 4190, 4189
941, 958, 959, 1060, 1059, 4089, 4090, 4191, 4190
942, 959, 960, 1061, 1060, 4090, 4091, 4192, 4191
943, 960, 961, 1062, 1061, 4091, 4092, 4193, 4192
944, 961, 962, 1063, 1062, 4092, 4093, 4194, 4193
945, 962, 963, 1064, 1063, 4093, 4094, 4195, 4194
946, 963, 964, 1065, 1064, 4094, 4095, 4196, 4195
947, 964, 965, 1066, 1065, 4095, 4096, 4197, 4196
948, 965, 966, 1067, 1066, 4096, 4097, 4198, 4197
949, 966, 967, 1068, 1067, 4097, 4098, 4199, 4198
950, 967, 968, 1069, 1068, 4098, 4099, 4200, 4199
951, 968, 969, 1070, 1069, 4099, 4100, 4201, 4200
952, 969, 970, 1071, 1070, 4100, 4101, 4202, 4201
953, 970, 971, 1072, 1071, 4101, 4102, 4203, 4202
954, 971, 972, 1073, 1072, 4102, 4103, 4204, 4203
955, 972, 973, 1074, 1073, 4103, 4104, 4205, 4204
956, 973, 974, 1075, 1074, 4104, 4105, 4206, 4205
957, 974, 975, 1076, 1075, 4105, 4106, 4207, 4206
958, 975, 976, 1077, 1076, 4106, 4107, 4208, 4207
959, 976, 977, 1078, 1077, 4107, 4108, 4209, 4208
960, 977, 978, 1079, 1078, 4108, 4109, 4210, 4209
961, 978, 979, 1080, 1079, 4109, 4110, 4211, 4210
962, 979, 980, 1081, 1080, 4110, 4111, 4212, 4211
963, 980, 981, 1082, 1081, 4111, 4112, 4213, 4212
964, 981, 982, 1083, 1082, 4112, 4113, 4214, 4213
965, 982, 983, 1084, 1083, 4113, 4114, 4215, 4214
966, 983, 984, 1085, 1084, 4114, 4115, 4216, 4215
967, 984, 985, 1086, 1085, 4115, 4116, 4217, 4216
968, 985, 986, 1087, 1086, 4116, 4117, 4218, 4217
969, 986, 987, 1088, 1087, 4117, 4118, 4219, 4218
970, 987, 988, 1089, 1088, 4118, 4119, 4220, 4219
971, 988, 989, 1090, 1089, 4119, 4120, 4221, 4220
972, 989, 990, 1091, 1090, 4120, 4121, 4222, 4221
973, 990, 991, 1092, 1091, 4121, 4122, 4223, 4222
974, 991, 992, 1093, 1092, 4122, 4123, 4224, 4223
975, 992, 993, 1094, 1093, 4123, 4124, 4225, 4224
976, 993, 994, 1095, 1094, 4124, 4125, 4226, 4225
977, 994, 995, 1096, 1095, 4125, 4126, 4227, 4226
978, 995, 996, 1097, 1096, 4126, 4127, 4228, 4227
979, 996, 997, 1098, 1097, 4127, 4128, 4229, 4228
980, 997, 998, 1099, 1098, 4128, 4129, 4230, 4229
981, 998, 999, 1100, 1099, 4129, 4130, 4231, 4230
982, 999, 1000, 1101, 1100, 4130, 4131, 4232, 4231
983, 1000, 1001, 1102, 1101, 4131, 4132, 4233, 4232
984, 1001, 1002, 1103, 1102, 4132, 4133, 4234, 4233
985, 1002, 1003, 1104, 1103, 4133, 4134, 4235, 4234
986, 1003, 1004, 1105, 1104, 4134, 4135, 4236, 4235
987, 1004, 1005, 1106, 1105, 4135, 4136, 4237, 4236
988, 1005, 1006, 1107, 1106, 4136, 4137, 4238, 4237
989, 1006, 1007, 1108, 1107, 4137, 4138, 4239, 4238
990, 1007, 1008, 1109, 1108, 4138, 4139, 4240, 4239
991, 1008, 1009, 1110, 1109, 4139, 4140, 4241, 4240
992, 1009, 1010, 1111, 1110, 4140, 4141, 4242, 4241
993, 1011, 1012, 1113, 1112, 4142, 4143, 4244, 4243
994, 1012, 1013, 1114, 1113, 4143, 4144, 4245, 4244
995, 1013, 1014, 1115, 1114, 4144, 4145, 4246, 4245
996, 1014, 1015, 1116, 1115, 4145, 4146, 4247, 4246
997, 1015, 1016, 1117, 1116, 4146, 4147, 4248, 4247
998, 1016, 1017, 1118, 1117, 4147, 4148, 4249, 4248
999, 1017, 1018, 1119, 1118, 4148, 4149, 4250, 4249
1000, 1018, 1019, 1120, 1119, 4149, 4150, 4251, 4250
1001, 1019, 1020, 1121, 1120, 4150, 4151, 4252, 4251
1002, 1020, 1021, 1122, 1121, 4151, 4152, 4253, 4252
1003, 1021, 1022, 1123, 1122, 4152, 4153, 4254, 4253
1004, 1022, 1023, 1124, 1123, 4153, 4154, 4255, 4254
1005, 1023, 1024, 1125, 1124, 4154, 4155, 4256, 4255
1006, 1024, 1025, 1126, 1125, 4155, 4156, 4257, 4256
1007, 1025, 1026, 1127, 1126, 4156, 4157, 4258, 4257
1008, 1026, 1027, 1128, 1127, 4157, 4158, 4259, 4258
1009, 1027, 1028, 1129, 1128, 4158, 4159, 4260, 4259
1010, 1028, 1029, 1130, 1129, 4159, 4160, 4261, 4260
1011, 1029, 1030, 1131, 1130, 4160, 4161, 4262, 4261
1012, 1030, 1031, 1132, 1131, 4161, 4162, 4263, 4262
1013, 1031, 1032, 1133, 1132, 4162, 4163, 4264, 4263
1014, 1032, 1033, 1134, 1133, 4163, 4164, 4265, 4264
1015, 1033, 1034, 1135, 1134, 4164, 4165, 4266, 4265
1016, 1034, 1035, 1136, 1135, 4165, 4166, 4267, 4266
1017, 1035, 1036, 1137, 1136, 4166, 4167, 4268, 4267
1018, 1036, 1037, 1138, 1137, 4167, 4168, 4269, 4268
1019, 1037, 1038, 1139, 1138, 4168, 4169, 4270, 4269
1020, 1038, 1039, 1140, 1139, 4169, 4170, 4271, 4270
1021, 1039, 1040, 1141, 1140, 4170, 4171, 4272, 4271
1022, 1040, 1041, 1142, 1141, 4171, 4172, 4273, 4272
1023, 1041, 1042, 1143, 1142, 4172, 4173, 4274, 4273
1024, 1042, 1043, 1144, 1143, 4173, 4174, 4275, 4274
1025, 1043, 1044, 1145, 1144, 4174, 4175, 4276, 4275
1026, 1044, 1045, 1146, 1145, 4175, 4176, 4277, 4276
1027, 1045, 1046, 1147, 1146, 4176, 4177, 4278, 4277
1028, 1046, 1047, 1148, 1147, 4177, 4178, 4279, 4278
1029, 1047, 1048, 1149, 1148, 4178, 4179, 4280, 4279
1030, 1048, 1049, 1150, 1149, 4179, 4180, 4281, 4280
1031, 1049, 1050, 1151, 1150, 4180, 4181, 4282, 4281
1032, 1050, 1051, 1152, 1151, 4181, 4182, 4283, 4282
1033, 1051, 1052, 1153, 1152, 4182, 4183, 4284, 4283
1034, 1052, 1053, 1154, 1153, 4183, 4184, 4285, 4284
1035, 1053, 1054, 1155, 1154, 4184, 4185, 4286, 4285
1036, 1054, 1055, 1156, 1155, 4185, 4186, 4287, 4286
1037, 1055, 1056, 1157, 1156, 4186, 4187, 4288, 4287
1038, 1056, 1057, 1158, 1157, 4187, 4188, 4289, 4288
1039, 1057, 1058, 1159, 1158, 4188, 4189, 4290, 4289
1040, 1058, 1059, 1160, 1159, 4189, 4190, 4291, 4290
1041, 1059, 1060, 1161, 1160, 4190, 4191, 4292, 4291
1042, 1060, 1061, 1162, 1161, 4191, 4192, 4293, 4292
1043, 1061, 1062, 1163, 1162, 4192, 4193, 4294, 4293
1044, 1062, 1063, 1164, 1163, 4193, 4194, 4295, 4294
1045, 1063, 1064, 1165, 1164, 4194, 4195, 4296, 4295
1046, 1064, 1065, 1166, 1165, 4195, 4196, 4297, 4296
1047, 1065, 1066, 1167, 1166, 4196, 4197, 4298, 4297
1048, 1066, 1067, 1168, 1167, 4197, 4198, 4299, 4298
1049, 1067, 1068, 1169, 1168, 4198, 4199, 4300, 4299
1050, 1068, 1069, 1170, 1169, 4199, 4200, 4301, 4300
1051, 1069, 1070, 1171, 1170, 4200, 4201, 4302, 4301
1052, 1070, 1071, 1172, 1171, 4201, 4202, 4303, 4302
1053, 1071, 1072, 1173, 1172, 4202, 4203, 4304, 4303
1054, 1072, 1073, 1174, 1173, 4203, 4204, 4305, 4304
1055, 1073, 1074, 1175, 1174, 4204, 4205, 4306, 4305
1056, 1074, 1075, 1176, 1175, 4205, 4206, 4307, 4306
1057, 1075, 1076, 1177, 1176, 4206, 4207, 4308, 4307
1058, 1076, 1077, 1178, 1177, 4207, 4208, 4309, 4308
1059, 1077, 1078, 1179, 1178, 4208, 4209, 4310, 4309
1060, 1078, 1079, 1180, 1179, 4209, 4210, 4311, 4310
1061, 1079, 1080, 1181, 1180, 4210, 4211, 4312, 4311
1062, 1080, 1081, 1182, 1181, 4211, 4212, 4313, 4312
1063, 1081, 1082, 1183, 1182, 4212, 4213, 4314, 4313
1064, 1082, 1083, 1184, 1183, 4213, 4214, 4315, 4314
1065, 1083, 1084, 1185, 1184, 4214, 4215, 4316, 4315
1066, 1084, 1085, 1186, 1185, 4215, 4216, 4317, 4316
1067, 1085, 1086, 1187, 1186, 4216, 4217, 4318, 4317
1068, 1086, 1087, 1188, 1187, 4217, 4218, 4319, 4318
1069, 1087, 1088, 1189, 1188, 4218, 4219, 4320, 4319
1070, 1088, 1089, 1190, 1189, 4219, 4220, 4321, 4320
1071, 1089, 1090, 1191, 1190, 4220, 4221, 4322, 4321
1072, 1090, 1091, 1192, 1191, 4221, 4222, 4323, 4322
1073, 1091, 1092, 1193, 1192, 4222, 4223, 4324, 4323
1074, 1092, 1093, 1194, 1193, 4223, 4224, 4325, 4324
1075, 1093, 1094, 1195, 1194, 4224, 4225, 4326, 4325
1076, 1094, 1095, 1196, 1195, 4225, 4226, 4327, 4326
1077, 1095, 1096, 1197, 1196, 4226, 4227, 4328, 4327
1078, 1096, 1097, 1198, 1197, 4227, 4228, 4329, 4328
1079, 1097, 1098, 1199, 1198, 4228, 4229, 4330, 4329
1080, 1098, 1099, 1200, 1199, 4229, 4230, 4331, 4330
1081, 1099, 1100, 1201, 1200, 4230, 4231, 4332, 4331
1082, 1100, 1101, 1202, 1201, 4231, 4232, 4333, 4332
1083, 1101, 1102, 1203, 1202, 4232, 4233, 4334, 4333
1084, 1102, 1103, 1204, 1203, 4233, 4234, 4335, 4334
1085, 1103, 1104, 1205, 1204, 4234, 4235, 4336, 4335
1086, 1104, 1105, 1206, 1205, 4235, 4236, 4337, 4336
1087, 1105, 1106, 1207, 1206, 4236, 4237, 4338, 4337
1088, 1106, 1107, 1208, 1207, 4237, 4238, 4339, 4338
1089, 1107, 1108, 1209, 1208, 4238, 4239, 4340, 4339
1090, 1108, 1109, 1210, 1209, 4239, 4240, 4341, 4340
1091, 1109, 1110, 1211, 1210, 4240, 4241, 4342, 4341
1092, 1110, 1111, 1212, 1211, 4241, 4242, 4343, 4342
1093, 1112, 1113, 1214, 1213, 4243, 4244, 4345, 4344
1094, 1113, 1114, 1215, 1214, 4244, 4245, 4346, 4345
1095, 1114, 1115, 1216, 1215, 4245, 4246, 4347, 4346
1096, 1115, 1116, 1217, 1216, 4246, 4247, 4348, 4347
1097, 1116, 1117, 1218, 1217, 4247, 4248, 4349, 4348
1098, 1117, 1118, 1219, 1218, 4248, 4249, 4350, 4349
1099, 1118, 1119, 1220, 1219, 4249, 4250, 4351, 4350
1100, 1119, 1120, 1221, 1220, 4250, 4251, 4352, 4351
1101, 1120, 1121, 1222, 1221, 4251, 4252, 4353, 4352
1102, 1121, 1122, 1223, 1222, 4252, 4253, 4354, 4353
1103, 1122, 1123, 1224, 1223, 4253, 4254, 4355, 4354
1104, 1123, 1124, 1225, 1224, 4254, 4255, 4356, 4355
1105, 1124, 1125, 1226, 1225, 4255, 4256, 4357, 4356
1106, 1125, 1126, 1227, 1226, 4256, 4257, 4358, 4357
1107, 1126, 1127, 1228, 1227, 4257, 4258, 4359, 4358
1108, 1127, 1128, 1229, 1228, 4258, 4259, 4360, 4359
1109, 1128, 1129, 1230, 1229, 4259, 4260, 4361, 4360
1110, 1129, 1130, 1231, 1230, 4260, 4261, 4362, 4361
1111, 1130, 1131, 1232, 1231, 4261, 4262, 4363, 4362
1112, 1131, 1132, 1233, 1232, 4262, 4263, 4364, 4363
1113, 1132, 1133, 1234, 1233, 4263, 4264, 4365, 4364
1114, 1133, 1134, 1235, 1234, 4264, 4265, 4366, 4365
1115, 1134, 1135, 1236, 1235, 4265, 4266, 4367, 4366
1116, 1135, 1136, 1237, 1236, 4266, 4267, 4368, 4367
1117, 1136, 1137, 1238, 1237, 4267, 4268, 4369, 4368
1118, 1137, 1138, 1239, 1238, 4268, 4269, 4370, 4369
1119, 1138, 1139, 1240, 1239, 4269, 4270, 4371, 4370
1120, 1139, 1140, 1241, 1240, 4270, 4271, 4372, 4371
1121, 1140, 1141, 1242, 1241, 4271, 4272, 4373, 4372
1122, 1141, 1142, 1243, 1242, 4272, 4273, 4374, 4373
1123, 1142, 1143, 1244, 1243, 4273, 4274, 4375, 4374
1124, 1143, 1144, 1245, 1244, 4274, 4275, 4376, 4375
1125, 1144, 1145, 1246, 1245, 4275, 4276, 4377, 4376
1126, 1145, 1146, 1247, 1246, 4276, 4277, 4378, 4377
1127, 1146, 1147, 1248, 1247, 4277, 4278, 4379, 4378
1128, 1147, 1148, 1249, 1248, 4278, 4279, 4380, 4379
1129, 1148, 1149, 1250, 1249, 4279, 4280, 4381, 4380
1130, 1149, 1150, 1251, 1250, 4280, 4281, 4382, 4381
1131, 1150, 1151, 1252, 1251, 4281, 4282, 4383, 4382
1132, 1151, 1152, 1253, 1252, 4282, 4283, 4384, 4383
1133, 1152, 1153, 1254, 1253, 4283, 4284, 4385, 4384
1134, 1153, 1154, 1255, 1254, 4284, 4285, 4386, 4385
1135, 1154, 1155, 1256, 1255, 4285, 4286, 4387, 4386
1136, 1155, 1156, 1257, 1256, 4286, 4287, 4388, 4387
1137, 1156, 1157, 1258, 1257, 4287, 4288, 4389, 4388
1138, 1157, 1158, 1259, 1258, 4288, 4289, 4390, 4389
1139, 1158, 1159, 1260, 1259, 4289, 4290, 4391, 4390
1140, 1159, 1160, 1261, 1260, 4290, 4291, 4392, 4391
1141, 1160, 1161, 1262, 1261, 4291, 4292, 4393, 4392
1142, 1161, 1162, 1263, 1262, 4292, 4293, 4394, 4393
1143, 1162, 1163, 1264, 1263, 4293, 4294, 4395, 4394
1144, 1163, 1164, 1265, 1264, 4294, 4295, 4396, 4395
1145, 1164, 1165, 1266, 1265, 4295, 4296, 4397, 4396
1146, 1165, 1166, 1267, 1266, 4296, 4297, 4398, 4397
1147, 1166, 1167, 1268, 1267, 4297, 4298, 4399, 4398
1148, 1167, 1168, 1269, 1268, 4298, 4299, 4400, 4399
1149, 1168, 1169, 1270, 1269, 4299, 4300, 4401, 4400
1150, 1169, 1170, 1271, 1270, 4300, 4301, 4402, 4401
1151, 1170, 1171, 1272, 1271, 4301, 4302, 4403, 4402
1152, 1171, 1172, 1273, 1272, 4302, 4303, 4404, 4403
1153, 1172, 1173, 1274, 1273, 4303, 4304, 4405, 4404
1154, 1173, 1174, 1275, 1274, 4304, 4305, 4406, 4405
1155, 1174, 1175, 1276, 1275, 4305, 4306, 4407, 4406
1156, 1175, 1176, 1277, 1276, 4306, 4307, 4408, 4407
1157, 1176, 1177, 1278, 1277, 4307, 4308, 4409, 4408
1158, 1177, 1178, 1279, 1278, 4308, 4309, 4410, 4409
1159, 1178, 1179, 1280, 1279, 4309, 4310, 4411, 4410
1160, 1179, 1180, 1281, 1280, 4310, 4311, 4412, 4411
1161, 1180, 1181, 1282, 1281, 4311, 4312, 4413, 4412
1162, 1181, 1182, 1283, 1282, 4312, 4313, 4414, 4413
1163, 1182, 1183, 1284, 1283, 4313, 4314, 4415, 4414
1164, 1183, 1184, 1285, 1284, 4314, 4315, 4416, 4415
1165, 1184, 1185, 1286, 1285, 4315, 4316, 4417, 4416
1166, 1185, 1186, 1287, 1286, 4316, 4317, 4418, 4417
1167, 1186, 1187, 1288, 1287, 4317, 4318, 4419, 4418
1168, 1187, 1188, 1289, 1288, 4318, 4319, 4420, 4419
1169, 1188, 1189, 1290, 1289, 4319, 4320, 4421, 4420
1170, 1189, 1190, 1291, 1290, 4320, 4321, 4422, 4421
1171, 1190, 1191, 1292, 1291, 4321, 4322, 4423, 4422
1172, 1191, 1192, 1293, 1292, 4322, 4323, 4424, 4423
1173, 1192, 1193, 1294, 1293, 4323, 4324, 4425, 4424
1174, 1193, 1194, 1295, 1294, 4324, 4325, 4426, 4425
1175, 1194, 1195, 1296, 1295, 4325, 4326, 4427, 4426
1176, 1195, 1196, 1297, 1296, 4326, 4327, 4428, 4427
1177, 1196, 1197, 1298, 1297, 4327, 4328, 4429, 4428
1178, 1197, 1198, 1299, 1298, 4328, 4329, 4430, 4429
1179, 1198, 1199, 1300, 1299, 4329, 4330, 4431, 4430
1180, 1199, 1200, 1301, 1300, 4330, 4331, 4432, 4431
1181, 1200, 1201, 1302, 1301, 4331, 4332, 4433, 4432
1182, 1201, 1202, 1303, 1302, 4332, 4333, 4434, 4433
1183, 1202, 1203, 1304, 1303, 4333, 4334, 4435, 4434
1184, 1203, 1204, 1305, 1304, 4334, 4335, 4436, 4435
1185, 1204, 1205, 1306, 1305, 4335, 4336, 4437, 4436
1186, 1205, 1206, 1307, 1306, 4336, 4337, 4438, 4437
1187, 1206, 1207, 1308, 1307, 4337, 4338, 4439, 4438
1188, 1207, 1208, 1309, 1308, 4338, 4339, 4440, 4439
1189, 1208, 1209, 1310, 1309, 4339, 4340, 4441, 4440
1190, 1209, 1210, 1311, 1310, 4340, 4341, 4442, 4441
1191, 1210, 1211, 1312, 1311, 4341, 4342, 4443, 4442
1192, 1211, 1212, 1313, 1312, 4342, 4343, 4444, 4443
1193, 1213, 1214, 1315, 1314, 4344, 4345, 4446, 4445
1194, 1214, 1215, 1316, 1315, 4345, 4346, 4447, 4446
1195, 1215, 1216, 1317, 1316, 4346, 4347, 4448, 4447
1196, 1216, 1217, 1318, 1317, 4347, 4348, 4449, 4448
1197, 1217, 1218, 1319, 1318, 4348, 4349, 4450, 4449
1198, 1218, 1219, 1320, 1319, 4349, 4350, 4451, 4450
1199, 1219, 1220, 1321, 1320, 4350, 4351, 4452, 4451
1200, 1220, 1221, 1322, 1321, 4351, 4352, 4453, 4452
1201, 1221, 1222, 1323, 1322, 4352, 4353, 4454, 4453
1202, 1222, 1223, 1324, 1323, 4353, 4354, 4455, 4454
1203, 1223, 1224, 1325, 1324, 4354, 4355, 4456, 4455
1204, 1224, 1225, 1326, 1325, 4355, 4356, 4457, 4456
1205, 1225, 1226, 1327, 1326, 4356, 4357, 4458, 4457
1206, 1226, 1227, 1328, 1327, 4357, 4358, 4459, 4458
1207, 1227, 1228, 1329, 1328, 4358, 4359, 4460, 4459
1208, 1228, 1229, 1330, 1329, 4359, 4360, 4461, 4460
1209, 1229, 1230, 1331, 1330, 4360, 4361, 4462, 4461
1210, 1230, 1231, 1332, 1331, 4361, 4362, 4463, 4462
1211, 1231, 1232, 1333, 1332, 4362, 4363, 4464, 4463
1212, 1232, 1233, 1334, 1333, 4363, 4364, 4465, 4464
1213, 1233, 1234, 1335, 1334, 4364, 4365, 4466, 4465
1214, 1234, 1235, 1336, 1335, 4365, 4366, 4467, 4466
1215, 1235, 1236, 1337, 1336, 4366, 4367, 4468, 4467
1216, 1236, 1237, 1338, 1337, 4367, 4368, 4469, 4468
1217, 1237, 1238, 1339, 1338, 4368, 4369, 4470, 4469
1218, 1238, 1239, 1340, 1339, 4369, 4370, 4471, 4470
1219, 1239, 1240, 1341, 1340, 4370, 4371, 4472, 4471
1220, 1240, 1241, 1342, 1341, 4371, 4372, 4473, 4472
1221, 1241, 1242, 1343, 1342, 4372, 4373, 4474, 4473
1222, 1242, 1243, 1344, 1343, 4373, 4374, 4475, 4474
1223, 1243, 1244, 1345, 1344, 4374, 4375, 4476, 4475
1224, 1244, 1245, 1346, 1345, 4375, 4376, 4477, 4476
1225, 1245, 1246, 1347, 1346, 4376, 4377, 4478, 4477
1226, 1246, 1247, 1348, 1347, 4377, 4378, 4479, 4478
1227, 1247, 1248, 1349, 1348, 4378, 4379, 4480, 4479
1228, 1248, 1249, 1350, 1349, 4379, 4380, 4481, 4480
1229, 1249, 1250, 1351, 1350, 4380, 4381, 4482, 4481
1230, 1250, 1251, 1352, 1351, 4381, 4382, 4483, 4482
1231, 1251, 1252, 1353, 1352, 4382, 4383, 4484, 4483
1232, 1252, 1253, 1354, 1353, 4383, 4384, 4485, 4484
1233, 1253, 1254, 1355, 1354, 4384, 4385, 4486, 4485
1234, 1254, 1255, 1356, 1355, 4385, 4386, 4487, 4486
1235, 1255, 1256, 1357, 1356, 4386, 4387, 4488, 4487
1236, 1256, 1257, 1358, 1357, 4387, 4388, 4489, 4488
1237, 1257, 1258, 1359, 1358, 4388, 4389, 4490, 4489
1238, 1258, 1259, 1360, 1359, 4389, 4390, 4491, 4490
1239, 1259, 1260, 1361, 1360, 4390, 4391, 4492, 4491
1240, 1260, 1261, 1362, 1361, 4391, 4392, 4493, 4492
1241, 1261, 1262, 1363, 1362, 4392, 4393, 4494, 4493
1242, 1262, 1263, 1364, 1363, 4393, 4394, 4495, 4494
1243, 1263, 1264, 1365, 1364, 4394, 4395, 4496, 4495
1244, 1264, 1265, 1366, 1365, 4395, 4396, 4497, 4496
1245, 1265, 1266, 1367, 1366, 4396, 4397, 4498, 4497
1246, 1266, 1267, 1368, 1367, 4397, 4398, 4499, 4498
1247, 1267, 1268, 1369, 1368, 4398, 4399, 4500, 4499
1248, 1268, 1269, 1370, 1369, 4399, 4400, 4501, 4500
1249, 1269, 1270, 1371, 1370, 4400, 4401, 4502, 4501
1250, 1270, 1271, 1372, 1371, 4401, 4402, 4503, 4502
1251, 1271, 1272, 1373, 1372, 4402, 4403, 4504, 4503
1252, 1272, 1273, 1374, 1373, 4403, 4404, 4505, 4504
1253, 1273, 1274, 1375, 1374, 4404, 4405, 4506, 4505
1254, 1274, 1275, 1376, 1375, 4405, 4406, 4507, 4506
1255, 1275, 1276, 1377, 1376, 4406, 4407, 4508, 4507
1256, 1276, 1277, 1378, 1377, 4407, 4408, 4509, 4508
1257, 1277, 1278, 1379, 1378, 4408, 4409, 4510, 4509
1258, 1278, 1279, 1380, 1379, 4409, 4410, 4511, 4510
1259, 1279, 1280, 1381, 1380, 4410, 4411, 4512, 4511
1260, 1280, 1281, 1382, 1381, 4411, 4412, 4513, 4512
1261, 1281, 1282, 1383, 1382, 4412, 4413, 4514, 4513
1262, 1282, 1283, 1384, 1383, 4413, 4414, 4515, 4514
1263, 1283, 1284, 1385, 1384, 4414, 4415, 4516, 4515
1264, 1284, 1285, 1386, 1385, 4415, 4416, 4517, 4516
1265, 1285, 1286, 1387, 1386, 4416, 4417, 4518, 4517
1266, 1286, 1287, 1388, 1387, 4417, 4418, 4519, 4518
1267, 1287, 1288, 1389, 1388, 4418, 4419, 4520, 4519
1268, 1288, 1289, 1390, 1389, 4419, 4420, 4521, 4520
1269, 1289, 1290, 1391, 1390, 4420, 4421, 4522, 4521
1270, 1290, 1291, 1392, 1391, 4421, 4422, 4523, 4522
1271, 1291, 1292, 1393, 1392, 4422, 4423, 4524, 4523
1272, 1292, 1293, 1394, 1393, 4423, 4424, 4525, 4524
1273, 1293, 1294, 1395, 1394, 4424, 4425, 4526, 4525
1274, 1294, 1295, 1396, 1395, 4425, 4426, 4527, 4526
1275, 1295, 1296, 1397, 1396, 4426, 4427, 4528, 4527
1276, 1296, 1297, 1398, 1397, 4427, 4428, 4529, 4528
1277, 1297, 1298, 1399, 1398, 4428, 4429, 4530, 4529
1278, 1298, 1299, 1400, 1399, 4429, 4430, 4531, 4530
1279, 1299, 1300, 1401, 1400, 4430, 4431, 4532, 4531
1280, 1300, 1301, 1402, 1401, 4431, 4432, 4533, 4532
1281, 1301, 1302, 1403, 1402, 4432, 4433, 4534, 4533
1282, 1302, 1303, 1404, 1403, 4433, 4434, 4535, 4534
1283, 1303, 1304, 1405, 1404, 4434, 4435, 4536, 4535
1284, 1304, 1305, 1406, 1405, 4435, 4436, 4537, 4536
1285, 1305, 1306, 1407, 1406, 4436, 4437, 4538, 4537
1286, 1306, 1307, 1408, 1407, 4437, 4438, 4539, 4538
1287, 1307, 1308, 1409, 1408, 4438, 4439, 4540, 4539
1288, 1308, 1309, 1410, 1409, 4439, 4440, 4541, 4540
1289, 1309, 1310, 1411, 1410, 4440, 4441, 4542, 4541
1290, 1310, 1311, 1412, 1411, 4441, 4442, 4543, 4542
1291, 1311, 1312, 1413, 1412, 4442, 4443, 4544, 4543
1292, 1312, 1313, 1414, 1413, 4443, 4444, 4545, 4544
1293, 1314, 1315, 1416, 1415, 4445, 4446, 4547, 4546
1294, 1315, 1316, 1417, 1416, 4446, 4447, 4548, 4547
1295, 1316, 1317, 1418, 1417, 4447, 4448, 4549, 4548
1296, 1317, 1318, 1419, 1418, 4448, 4449, 4550, 4549
1297, 1318, 1319, 1420, 1419, 4449, 4450, 4551, 4550
1298, 1319, 1320, 1421, 1420, 4450, 4451, 4552, 4551
1299, 1320, 1321, 1422, 1421, 4451, 4452, 4553, 4552
1300, 1321, 1322, 1423, 1422, 4452, 4453, 4554, 4553
1301, 1322, 1323, 1424, 1423, 4453, 4454, 4555, 4554
1302, 1323, 1324, 1425, 1424, 4454, 4455, 4556, 4555
1303, 1324, 1325, 1426, 1425, 4455, 4456, 4557, 4556
1304, 1325, 1326, 1427, 1426, 4456, 4457, 4558, 4557
1305, 1326, 1327, 1428, 1427, 4457, 4458, 4559, 4558
1306, 1327, 1328, 1429, 1428, 4458, 4459, 4560, 4559
1307, 1328, 1329, 1430, 1429, 4459, 4460, 4561, 4560
1308, 1329, 1330, 1431, 1430, 4460, 4461, 4562, 4561
1309, 1330, 1331, 1432, 1431, 4461, 4462, 4563, 4562
1310, 1331, 1332, 1433, 1432, 4462, 4463, 4564, 4563
1311, 1332, 1333, 1434, 1433, 4463, 4464, 4565, 4564
1312, 1333, 1334, 1435, 1434, 4464, 4465, 4566, 4565
1313, 1334, 1335, 1436, 1435, 4465, 4466, 4567, 4566
1314, 1335, 1336, 1437, 1436, 4466, 4467, 4568, 4567
1315, 1336, 1337, 1438, 1437, 4467, 4468, 4569, 4568
1316, 1337, 1338, 1439, 1438, 4468, 4469, 4570, 4569
1317, 1338, 1339, 1440, 1439, 4469, 4470, 4571, 4570
1318, 1339, 1340, 1441, 1440, 4470, 4471, 4572, 4571
1319, 1340, 1341, 1442, 1441, 4471, 4472, 4573, 4572
1320, 1341, 1342, 1443, 1442, 4472, 4473, 4574, 4573
1321, 1342, 1343, 1444, 1443, 4473, 4474, 4575, 4574
1322, 1343, 1344, 1445, 1444, 4474, 4475, 4576, 4575
1323, 1344, 1345, 1446, 1445, 4475, 4476, 4577, 4576
1324, 1345, 1346, 1447, 1446, 4476, 4477, 4578, 4577
1325, 1346, 1347, 1448, 1447, 4477, 4478, 4579, 4578
1326, 1347, 1348, 1449, 1448, 4478, 4479, 4580, 4579
1327, 1348, 1349, 1450, 1449, 4479, 4480, 4581, 4580
1328, 1349, 1350, 1451, 1450, 4480, 4481, 4582, 4581
1329, 1350, 1351, 1452, 1451, 4481, 4482, 4583, 4582
1330, 1351, 1352, 1453, 1452, 4482, 4483, 4584, 4583
1331, 1352, 1353, 1454, 1453, 4483, 4484, 4585, 4584
1332, 1353, 1354, 1455, 1454, 4484, 4485, 4586, 4585
1333, 1354, 1355, 1456, 1455, 4485, 4486, 4587, 4586
1334, 1355, 1356, 1457, 1456, 4486, 4487, 4588, 4587
1335, 1356, 1357, 1458, 1457, 4487, 4488, 4589, 4588
1336, 1357, 1358, 1459, 1458, 4488, 4489, 4590, 4589
1337, 1358, 1359, 1460, 1459, 4489, 4490, 4591, 4590
1338, 1359, 1360, 1461, 1460, 4490, 4491, 4592, 4591
1339, 1360, 1361, 1462, 1461, 4491, 4492, 4593, 4592
1340, 1361, 1362, 1463, 1462, 4492, 4493, 4594, 4593
1341, 1362, 1363, 1464, 1463, 4493, 4494, 4595, 4594
1342, 1363, 1364, 1465, 1464, 4494, 4495, 4596, 4595
1343, 1364, 1365, 1466, 1465, 4495, 4496, 4597, 4596
1344, 1365, 1366, 1467, 1466, 4496, 4497, 4598, 4597
1345, 1366, 1367, 1468, 1467, 4497, 4498, 4599, 4598
1346, 1367, 1368, 1469, 1468, 4498, 4499, 4600, 4599
1347, 1368, 1369, 1470, 1469, 4499, 4500, 4601, 4600
1348, 1369, 1370, 1471, 1470, 4500, 4501, 4602, 4601
1349, 1370, 1371, 1472, 1471, 4501, 4502, 4603, 4602
1350, 1371, 1372, 1473, 1472, 4502, 4503, 4604, 4603
1351, 1372, 1373, 1474, 1473, 4503, 4504, 4605, 4604
1352, 1373, 1374, 1475, 1474, 4504, 4505, 4606, 4605
1353, 1374, 1375, 1476, 1475, 4505, 4506, 4607, 4606
1354, 1375, 1376, 1477, 1476, 4506, 4507, 4608, 4607
1355, 1376, 1377, 1478, 1477, 4507, 4508, 4609, 4608
1356, 1377, 1378, 1479, 1478, 4508, 4509, 4610, 4609
1357, 1378, 1379, 1480, 1479, 4509, 4510, 4611, 4610
1358, 1379, 1380, 1481, 1480, 4510, 4511, 4612, 4611
1359, 1380, 1381, 1482, 1481, 4511, 4512, 4613, 4612
1360, 1381, 1382, 1483, 1482, 4512, 4513, 4614, 4613
1361, 1382, 1383, 1484, 1483, 4513, 4514, 4615, 4614
1362, 1383, 1384, 1485, 1484, 4514, 4515, 4616, 4615
1363, 1384, 1385, 1486, 1485, 4515, 4516, 4617, 4616
1364, 1385, 1386, 1487, 1486, 4516, 4517, 4618, 4617
1365, 1386, 1387, 1488, 1487, 4517, 4518, 4619, 4618
1366, 1387, 1388, 1489, 1488, 4518, 4519, 4620, 4619
1367, 1388, 1389, 1490, 1489, 4519, 4520, 4621, 4620
1368, 1389, 1390, 1491, 1490, 4520, 4521, 4622, 4621
1369, 1390, 1391, 1492, 1491, 4521, 4522, 4623, 4622
1370, 1391, 1392, 1493, 1492, 4522, 4523, 4624, 4623
1371, 1392, 1393, 1494, 1493, 4523, 4524, 4625, 4624
1372, 1393, 1394, 1495, 1494, 4524, 4525, 4626, 4625
1373, 1394, 1395, 1496, 1495, 4525, 4526, 4627, 4626
1374, 1395, 1396, 1497, 1496, 4526, 4527, 4628, 4627
1375, 1396, 1397, 1498, 1497, 4527, 4528, 4629, 4628
1376, 1397, 1398, 1499, 1498, 4528, 4529, 4630, 4629
1377, 1398, 1399, 1500, 1499, 4529, 4530, 4631, 4630
1378, 1399, 1400, 1501, 1500, 4530, 4531, 4632, 4631
1379, 1400, 1401, 1502, 1501, 4531, 4532, 4633, 4632
1380, 1401, 1402, 1503, 1502, 4532, 4533, 4634, 4633
1381, 1402, 1403, 1504, 1503, 4533, 4534, 4635, 4634
1382, 1403, 1404, 1505, 1504, 4534, 4535, 4636, 4635
1383, 1404, 1405, 1506, 1505, 4535, 4536, 4637, 4636
1384, 1405, 1406, 1507, 1506, 4536, 4537, 4638, 4637
1385, 1406, 1407, 1508, 1507, 4537, 4538, 4639, 4638
1386, 1407, 1408, 1509, 1508, 4538, 4539, 4640, 4639
1387, 1408, 1409, 1510, 1509, 4539, 4540, 4641, 4640
1388, 1409, 1410, 1511, 1510, 4540, 4541, 4642, 4641
1389, 1410, 1411, 1512, 1511, 4541, 4542, 4643, 4642
1390, 1411, 1412, 1513, 1512, 4542, 4543, 4644, 4643
1391, 1412, 1413, 1514, 1513, 4543, 4544, 4645, 4644
1392, 1413, 1414, 1515, 1514, 4544, 4545, 4646, 4645
1393, 1415, 1416, 1517, 1516, 4546, 4547, 4648, 4647
1394, 1416, 1417, 1518, 1517, 4547, 4548, 4649, 4648
1395, 1417, 1418, 1519, 1518, 4548, 4549, 4650, 4649
1396, 1418, 1419, 1520, 1519, 4549, 4550, 4651, 4650
1397, 1419, 1420, 1521, 1520, 4550, 4551, 4652, 4651
1398, 1420, 1421, 1522, 1521, 4551, 4552, 4653, 4652
1399, 1421, 1422, 1523, 1522, 4552, 4553, 4654, 4653
1400, 1422, 1423, 1524, 1523, 4553, 4554, 4655, 4654
1401, 1423, 1424, 1525, 1524, 4554, 4555, 4656, 4655
1402, 1424, 1425, 1526, 1525, 4555, 4556, 4657, 4656
1403, 1425, 1426, 1527, 1526, 4556, 4557, 4658, 4657
1404, 1426, 1427, 1528, 1527, 4557, 4558, 4659, 4658
1405, 1427, 1428, 1529, 1528, 4558, 4559, 4660, 4659
1406, 1428, 1429, 1530, 1529, 4559, 4560, 4661, 4660
1407, 1429, 1430, 1531, 1530, 4560, 4561, 4662, 4661
1408, 1430, 1431, 1532, 1531, 4561, 4562, 4663, 4662
1409, 1431, 1432, 1533, 1532, 4562, 4563, 4664, 4663
1410, 1432, 1433, 1534, 1533, 4563, 4564, 4665, 4664
1411, 1433, 1434, 1535, 1534, 4564, 4565, 4666, 4665
1412, 1434, 1435, 1536, 1535, 4565, 4566, 4667, 4666
1413, 1435, 1436, 1537, 1536, 4566, 4567, 4668, 4667
1414, 1436, 1437, 1538, 1537, 4567, 4568, 4669, 4668
1415, 1437, 1438, 1539, 1538, 4568, 4569, 4670, 4669
1416, 1438, 1439, 1540, 1539, 4569, 4570, 4671, 4670
1417, 1439, 1440, 1541, 1540, 4570, 4571, 4672, 4671
1418, 1440, 1441, 1542, 1541, 4571, 4572, 4673, 4672
1419, 1441, 1442, 1543, 1542, 4572, 4573, 4674, 4673
1420, 1442, 1443, 1544, 1543, 4573, 4574, 4675, 4674
1421, 1443, 1444, 1545, 1544, 4574, 4575, 4676, 4675
1422, 1444, 1445, 1546, 1545, 4575, 4576, 4677, 4676
1423, 1445, 1446, 1547, 1546, 4576, 4577, 4678, 4677
1424, 1446, 1447, 1548, 1547, 4577, 4578, 4679, 4678
1425, 1447, 1448, 1549, 1548, 4578, 4579, 4680, 4679
1426, 1448, 1449, 1550, 1549, 4579, 4580, 4681, 4680
1427, 1449, 1450, 1551, 1550, 4580, 4581, 4682, 4681
1428, 1450, 1451, 1552, 1551, 4581, 4582, 4683, 4682
1429, 1451, 1452, 1553, 1552, 4582, 4583, 4684, 4683
1430, 1452, 1453, 1554, 1553, 4583, 4584, 4685, 4684
1431, 1453, 1454, 1555, 1554, 4584, 4585, 4686, 4685
1432, 1454, 1455, 1556, 1555, 4585, 4586, 4687, 4686
1433, 1455, 1456, 1557, 1556, 4586, 4587, 4688, 4687
1434, 1456, 1457, 1558, 1557, 4587, 4588, 4689, 4688
1435, 1457, 1458, 1559, 1558, 4588, 4589, 4690, 4689
1436, 1458, 1459, 1560, 1559, 4589, 4590, 4691, 4690
1437, 1459, 1460, 1561, 1560, 4590, 4591, 4692, 4691
1438, 1460, 1461, 1562, 1561, 4591, 4592, 4693, 4692
1439, 1461, 1462, 1563, 1562, 4592, 4593, 4694, 4693
1440, 1462, 1463, 1564, 1563, 4593, 4594, 4695, 4694
1441, 1463, 1464, 1565, 1564, 4594, 4595, 4696, 4695
1442, 1464, 1465, 1566, 1565, 4595, 4596, 4697, 4696
1443, 1465, 1466, 1567, 1566, 4596, 4597, 4698, 4697
1444, 1466, 1467, 1568, 1567, 4597, 4598, 4699, 4698
1445, 1467, 1468, 1569, 1568, 4598, 4599, 4700, 4699
1446, 1468, 1469, 1570, 1569, 4599, 4600, 4701, 4700
1447, 1469, 1470, 1571, 1570, 4600, 4601, 4702, 4701
1448, 1470, 1471, 1572, 1571, 4601, 4602, 4703, 4702
1449, 1471, 1472, 1573, 1572, 4602, 4603, 4704, 4703
1450, 1472, 1473, 1574, 1573, 4603, 4604, 4705, 4704
1451, 1473, 1474, 1575, 1574, 4604, 4605, 4706, 4705
1452, 1474, 1475, 1576, 1575, 4605, 4606, 4707, 4706
1453, 1475, 1476, 1577, 1576, 4606, 4607, 4708, 4707
1454, 1476, 1477, 1578, 1577, 4607, 4608, 4709, 4708
1455, 1477, 1478, 1579, 1578, 4608, 4609, 4710, 4709
1456, 1478, 1479, 1580, 1579, 4609, 4610, 4711, 4710
1457, 1479, 1480, 1581, 1580, 4610, 4611, 4712, 4711
1458, 1480, 1481, 1582, 1581, 4611, 4612, 4713, 4712
1459, 1481, 1482, 1583, 1582, 4612, 4613, 4714, 4713
1460, 1482, 1483, 1584, 1583, 4613, 4614, 4715, 4714
1461, 1483, 1484, 1585, 1584, 4614, 4615, 4716, 4715
1462, 1484, 1485, 1586, 1585, 4615, 4616, 4717, 4716
1463, 1485, 1486, 1587, 1586, 4616, 4617, 4718, 4717
1464, 1486, 1487, 1588, 1587, 4617, 4618, 4719, 4718
1465, 1487, 1488, 1589, 1588, 4618, 4619, 4720, 4719
1466, 1488, 1489, 1590, 1589, 4619, 4620, 4721, 4720
1467, 1489, 1490, 1591, 1590, 4620, 4621, 4722, 4721
1468, 1490, 1491, 1592, 1591, 4621, 4622, 4723, 4722
1469, 1491, 1492, 1593, 1592, 4622, 4623, 4724, 4723
1470, 1492, 1493, 1594, 1593, 4623, 4624, 4725, 4724
1471, 1493, 1494, 1595, 1594, 4624, 4625, 4726, 4725
1472, 1494, 1495, 1596, 1595, 4625, 4626, 4727, 4726
1473, 1495, 1496, 1597, 1596, 4626, 4627, 4728, 4727
1474, 1496, 1497, 1598, 1597, 4627, 4628, 4729, 4728
1475, 1497, 1498, 1599, 1598, 4628, 4629, 4730, 4729
1476, 1498, 1499, 1600, 1599, 4629, 4630, 4731, 4730
1477, 1499, 1500, 1601, 1600, 4630, 4631, 4732, 4731
1478, 1500, 1501, 1602, 1601, 4631, 4632, 4733, 4732
1479, 1501, 1502, 1603, 1602, 4632, 4633, 4734, 4733
1480, 1502, 1503, 1604, 1603, 4633, 4634, 4735, 4734
1481, 1503, 1504, 1605, 1604, 4634, 4635, 4736, 4735
1482, 1504, 1505, 1606, 1605, 4635, 4636, 4737, 4736
1483, 1505, 1506, 1607, 1606, 4636, 4637, 4738, 4737
1484, 1506, 1507, 1608, 1607, 4637, 4638, 4739, 4738
1485, 1507, 1508, 1609, 1608, 4638, 4639, 4740, 4739
1486, 1508, 1509, 1610, 1609, 4639, 4640, 4741, 4740
1487, 1509, 1510, 1611, 1610, 4640, 4641, 4742, 4741
1488, 1510, 1511, 1612, 1611, 4641, 4642, 4743, 4742
1489, 1511, 1512, 1613, 1612, 4642, 4643, 4744, 4743
1490, 1512, 1513, 1614, 1613, 4643, 4644, 4745, 4744
1491, 1513, 1514, 1615, 1614, 4644, 4645, 4746, 4745
1492, 1514, 1515, 1616, 1615, 4645, 4646, 4747, 4746
1493, 1516, 1517, 1618, 1617, 4647, 4648, 4749, 4748
1494, 1517, 1518, 1619, 1618, 4648, 4649, 4750, 4749
1495, 1518, 1519, 1620, 1619, 4649, 4650, 4751, 4750
1496, 1519, 1520, 1621, 1620, 4650, 4651, 4752, 4751
1497, 1520, 1521, 1622, 1621, 4651, 4652, 4753, 4752
1498, 1521, 1522, 1623, 1622, 4652, 4653, 4754, 4753
1499, 1522, 1523, 1624, 1623, 4653, 4654, 4755, 4754
1500, 1523, 1524, 1625, 1624, 4654, 4655, 4756, 4755
1501, 1524, 1525, 1626, 1625, 4655, 4656, 4757, 4756
1502, 1525, 1526, 1627, 1626, 4656, 4657, 4758, 4757
1503, 1526, 1527, 1628, 1627, 4657, 4658, 4759, 4758
1504, 1527, 1528, 1629, 1628, 4658, 4659, 4760, 4759
1505, 1528, 1529, 1630, 1629, 4659, 4660, 4761, 4760
1506, 1529, 1530, 1631, 1630, 4660, 4661, 4762, 4761
1507, 1530, 1531, 1632, 1631, 4661, 4662, 4763, 4762
1508, 1531, 1532, 1633, 1632, 4662, 4663, 4764, 4763
1509, 1532, 1533, 1634, 1633, 4663, 4664, 4765, 4764
1510, 1533, 1534, 1635, 1634, 4664, 4665, 4766, 4765
1511, 1534, 1535, 1636, 1635, 4665, 4666, 4767, 4766
1512, 1535, 1536, 1637, 1636, 4666, 4667, 4768, 4767
1513, 1536, 1537, 1638, 1637, 4667, 4668, 4769, 4768
1514, 1537, 1538, 1639, 1638, 4668, 4669, 4770, 4769
1515, 1538, 1539, 1640, 1639, 4669, 4670, 4771, 4770
1516, 1539, 1540, 1641, 1640, 4670, 4671, 4772, 4771
1517, 1540, 1541, 1642, 1641, 4671, 4672, 4773, 4772
1518, 1541, 1542, 1643, 1642, 4672, 4673, 4774, 4773
1519, 1542, 1543, 1644, 1643, 4673, 4674, 4775, 4774
1520, 1543, 1544, 1645, 1644, 4674, 4675, 4776, 4775
1521, 1544, 1545, 1646, 1645, 4675, 4676, 4777, 4776
1522, 1545, 1546, 1647, 1646, 4676, 4677, 4778, 4777
1523, 1546, 1547, 1648, 1647, 4677, 4678, 4779, 4778
1524, 1547, 1548, 1649, 1648, 4678, 4679, 4780, 4779
1525, 1548, 1549, 1650, 1649, 4679, 4680, 4781, 4780
1526, 1549, 1550, 1651, 1650, 4680, 4681, 4782, 4781
1527, 1550, 1551, 1652, 1651, 4681, 4682, 4783, 4782
1528, 1551, 1552, 1653, 1652, 4682, 4683, 4784, 4783
1529, 1552, 1553, 1654, 1653, 4683, 4684, 4785, 4784
1530, 1553, 1554, 1655, 1654, 4684, 4685, 4786, 4785
1531, 1554, 1555, 1656, 1655, 4685, 4686, 4787, 4786
1532, 1555, 1556, 1657, 1656, 4686, 4687, 4788, 4787
1533, 1556, 1557, 1658, 1657, 4687, 4688, 4789, 4788
1534, 1557, 1558, 1659, 1658, 4688, 4689, 4790, 4789
1535, 1558, 1559, 1660, 1659, 4689, 4690, 4791, 4790
1536, 1559, 1560, 1661, 1660, 4690, 4691, 4792, 4791
1537, 1560, 1561, 1662, 1661, 4691, 4692, 4793, 4792
1538, 1561, 1562, 1663, 1662, 4692, 4693, 4794, 4793
1539, 1562, 1563, 1664, 1663, 4693, 4694, 4795, 4794
1540, 1563, 1564, 1665, 1664, 4694, 4695, 4796, 4795
1541, 1564, 1565, 1666, 1665, 4695, 4696, 4797, 4796
1542, 1565, 1566, 1667, 1666, 4696, 4697, 4798, 4797
1543, 1566, 1567, 1668, 1667, 4697, 4698, 4799, 4798
1544, 1567, 1568, 1669, 1668, 4698, 4699, 4800, 4799
1545, 1568, 1569, 1670, 1669, 4699, 4700, 4801, 4800
1546, 1569, 1570, 1671, 1670, 4700, 4701, 4802, 4801
1547, 1570, 1571, 1672, 1671, 4701, 4702, 4803, 4802
1548, 1571, 1572, 1673, 1672, 4702, 4703, 4804, 4803
1549, 1572, 1573, 1674, 1673, 4703, 4704, 4805, 4804
1550, 1573, 1574, 1675, 1674, 4704, 4705, 4806, 4805
1551, 1574, 1575, 1676, 1675, 4705, 4706, 4807, 4806
1552, 1575, 1576, 1677, 1676, 4706, 4707, 4808, 4807
1553, 1576, 1577, 1678, 1677, 4707, 4708, 4809, 4808
1554, 1577, 1578, 1679, 1678, 4708, 4709, 4810, 4809
1555, 1578, 1579, 1680, 1679, 4709, 4710, 4811, 4810
1556, 1579, 1580, 1681, 1680, 4710, 4711, 4812, 4811
1557, 1580, 1581, 1682, 1681, 4711, 4712, 4813, 4812
1558, 1581, 1582, 1683, 1682, 4712, 4713, 4814, 4813
1559, 1582, 1583, 1684, 1683, 4713, 4714, 4815, 4814
1560, 1583, 1584, 1685, 1684, 4714, 4715, 4816, 4815
1561, 1584, 1585, 1686, 1685, 4715, 4716, 4817, 4816
1562, 1585, 1586, 1687, 1686, 4716, 4717, 4818, 4817
1563, 1586, 1587, 1688, 1687, 4717, 4718, 4819, 4818
1564, 1587, 1588, 1689, 1688, 4718, 4719, 4820, 4819
1565, 1588, 1589, 1690, 1689, 4719, 4720, 4821, 4820
1566, 1589, 1590, 1691, 1690, 4720, 4721, 4822, 4821
1567, 1590, 1591, 1692, 1691, 4721, 4722, 4823, 4822
1568, 1591, 1592, 1693, 1692, 4722, 4723, 4824, 4823
1569, 1592, 1593, 1694, 1693, 4723, 4724, 4825, 4824
1570, 1593, 1594, 1695, 1694, 4724, 4725, 4826, 4825
1571, 1594, 1595, 1696, 1695, 4725, 4726, 4827, 4826
1572, 1595, 1596, 1697, 1696, 4726, 4727, 4828, 4827
1573, 1596, 1597, 1698, 1697, 4727, 4728, 4829, 4828
1574, 1597, 1598, 1699, 1698, 4728, 4729, 4830, 4829
1575, 1598, 1599, 1700, 1699, 4729, 4730, 4831, 4830
1576, 1599, 1600, 1701, 1700, 4730, 4731, 4832, 4831
1577, 1600, 1601, 1702, 1701, 4731, 4732, 4833, 4832
1578, 1601, 1602, 1703, 1702, 4732, 4733, 4834, 4833
1579, 1602, 1603, 1704, 1703, 4733, 4734, 4835, 4834
1580, 1603, 1604, 1705, 1704, 4734, 4735, 4836, 4835
1581, 1604, 1605, 1706, 1705, 4735, 4736, 4837, 4836
1582, 1605, 1606, 1707, 1706, 4736, 4737, 4838, 4837
1583, 1606, 1607, 1708, 1707, 4737, 4738, 4839, 4838
1584, 1607, 1608, 1709, 1708, 4738, 4739, 4840, 4839
1585, 1608, 1609, 1710, 1709, 4739, 4740, 4841, 4840
1586, 1609, 1610, 1711, 1710, 4740, 4741, 4842, 4841
1587, 1610, 1611, 1712, 1711, 4741, 4742, 4843, 4842
1588, 1611, 1612, 1713, 1712, 4742, 4743, 4844, 4843
1589, 1612, 1613, 1714, 1713, 4743, 4744, 4845, 4844
1590, 1613, 1614, 1715, 1714, 4744, 4745, 4846, 4845
1591, 1614, 1615, 1716, 1715, 4745, 4746, 4847, 4846
1592, 1615, 1616, 1717, 1716, 4746, 4747, 4848, 4847
1593, 1617, 1618, 1719, 1718, 4748, 4749, 4850, 4849
1594, 1618, 1619, 1720, 1719, 4749, 4750, 4851, 4850
1595, 1619, 1620, 1721, 1720, 4750, 4751, 4852, 4851
1596, 1620, 1621, 1722, 1721, 4751, 4752, 4853, 4852
1597, 1621, 1622, 1723, 1722, 4752, 4753, 4854, 4853
1598, 1622, 1623, 1724, 1723, 4753, 4754, 4855, 4854
1599, 1623, 1624, 1725, 1724, 4754, 4755, 4856, 4855
1600, 1624, 1625, 1726, 1725, 4755, 4756, 4857, 4856
1601, 1625, 1626, 1727, 1726, 4756, 4757, 4858, 4857
1602, 1626, 1627, 1728, 1727, 4757, 4758, 4859, 4858
1603, 1627, 1628, 1729, 1728, 4758, 4759, 4860, 4859
1604, 1628, 1629, 1730, 1729, 4759, 4760, 4861, 4860
1605, 1629, 1630, 1731, 1730, 4760, 4761, 4862, 4861
1606, 1630, 1631, 1732, 1731, 4761, 4762, 4863, 4862
1607, 1631, 1632, 1733, 1732, 4762, 4763, 4864, 4863
1608, 1632, 1633, 1734, 1733, 4763, 4764, 4865, 4864
1609, 1633, 1634, 1735, 1734, 4764, 4765, 4866, 4865
1610, 1634, 1635, 1736, 1735, 4765, 4766, 4867, 4866
1611, 1635, 1636, 1737, 1736, 4766, 4767, 4868, 4867
1612, 1636, 1637, 1738, 1737, 4767, 4768, 4869, 4868
1613, 1637, 1638, 1739, 1738, 4768, 4769, 4870, 4869
1614, 1638, 1639, 1740, 1739, 4769, 4770, 4871, 4870
1615, 1639, 1640, 1741, 1740, 4770, 4771, 4872, 4871
1616, 1640, 1641, 1742, 1741, 4771, 4772, 4873, 4872
1617, 1641, 1642, 1743, 1742, 4772, 4773, 4874, 4873
1618, 1642, 1643, 1744, 1743, 4773, 4774, 4875, 4874
1619, 1643, 1644, 1745, 1744, 4774, 4775, 4876, 4875
1620, 1644, 1645, 1746, 1745, 4775, 4776, 4877, 4876
1621, 1645, 1646, 1747, 1746, 4776, 4777, 4878, 4877
1622, 1646, 1647, 1748, 1747, 4777, 4778, 4879, 4878
1623, 1647, 1648, 1749, 1748, 4778, 4779, 4880, 4879
1624, 1648, 1649, 1750, 1749, 4779, 4780, 4881, 4880
1625, 1649, 1650, 1751, 1750, 4780, 4781, 4882, 4881
1626, 1650, 1651, 1752, 1751, 4781, 4782, 4883, 4882
1627, 1651, 1652, 1753, 1752, 4782, 4783, 4884, 4883
1628, 1652, 1653, 1754, 1753, 4783, 4784, 4885, 4884
1629, 1653, 1654, 1755, 1754, 4784, 4785, 4886, 4885
1630, 1654, 1655, 1756, 1755, 4785, 4786, 4887, 4886
1631, 1655, 1656, 1757, 1756, 4786, 4787, 4888, 4887
1632, 1656, 1657, 1758, 1757, 4787, 4788, 4889, 4888
1633, 1657, 1658, 1759, 1758, 4788, 4789, 4890, 4889
1634, 1658, 1659, 1760, 1759, 4789, 4790, 4891, 4890
1635, 1659, 1660, 1761, 1760, 4790, 4791, 4892, 4891
1636, 1660, 1661, 1762, 1761, 4791, 4792, 4893, 4892
1637, 1661, 1662, 1763, 1762, 4792, 4793, 4894, 4893
1638, 1662, 1663, 1764, 1763, 4793, 4794, 4895, 4894
1639, 1663, 1664, 1765, 1764, 4794, 4795, 4896, 4895
1640, 1664, 1665, 1766, 1765, 4795, 4796, 4897, 4896
1641, 1665, 1666, 1767, 1766, 4796, 4797, 4898, 4897
1642, 1666, 1667, 1768, 1767, 4797, 4798, 4899, 4898
1643, 1667, 1668, 1769, 1768, 4798, 4799, 4900, 4899
1644, 1668, 1669, 1770, 1769, 4799, 4800, 4901, 4900
1645, 1669, 1670, 1771, 1770, 4800, 4801, 4902, 4901
1646, 1670, 1671, 1772, 1771, 4801, 4802, 4903, 4902
1647, 1671, 1672, 1773, 1772, 4802, 4803, 4904, 4903
1648, 1672, 1673, 1774, 1773, 4803, 4804, 4905, 4904
1649, 1673, 1674, 1775, 1774, 4804, 4805, 4906, 4905
1650, 1674, 1675, 1776, 1775, 4805, 4806, 4907, 4906
1651, 1675, 1676, 1777, 1776, 4806, 4807, 4908, 4907
1652, 1676, 1677, 1778, 1777, 4807, 4808, 4909, 4908
1653, 1677, 1678, 1779, 1778, 4808, 4809, 4910, 4909
1654, 1678, 1679, 1780, 1779, 4809, 4810, 4911, 4910
1655, 1679, 1680, 1781, 1780, 4810, 4811, 4912, 4911
1656, 1680, 1681, 1782, 1781, 4811, 4812, 4913, 4912
1657, 1681, 1682, 1783, 1782, 4812, 4813, 4914, 4913
1658, 1682, 1683, 1784, 1783, 4813, 4814, 4915, 4914
1659, 1683, 1684, 1785, 1784, 4814, 4815, 4916, 4915
1660, 1684, 1685, 1786, 1785, 4815, 4816, 4917, 4916
1661, 1685, 1686, 1787, 1786, 4816, 4817, 4918, 4917
1662, 1686, 1687, 1788, 1787, 4817, 4818, 4919, 4918
1663, 1687, 1688, 1789, 1788, 4818, 4819, 4920, 4919
1664, 1688, 1689, 1790, 1789, 4819, 4820, 4921, 4920
1665, 1689, 1690, 1791, 1790, 4820, 4821, 4922, 4921
1666, 1690, 1691, 1792, 1791, 4821, 4822, 4923, 4922
1667, 1691, 1692, 1793, 1792, 4822, 4823, 4924, 4923
1668, 1692, 1693, 1794, 1793, 4823, 4824, 4925, 4924
1669, 1693, 1694, 1795, 1794, 4824, 4825, 4926, 4925
1670, 1694, 1695, 1796, 1795, 4825, 4826, 4927, 4926
1671, 1695, 1696, 1797, 1796, 4826, 4827, 4928, 4927
1672, 1696, 1697, 1798, 1797, 4827, 4828, 4929, 4928
1673, 1697, 1698, 1799, 1798, 4828, 4829, 4930, 4929
1674, 1698, 1699, 1800, 1799, 4829, 4830, 4931, 4930
1675, 1699, 1700, 1801, 1800, 4830, 4831, 4932, 4931
1676, 1700, 1701, 1802, 1801, 4831, 4832, 4933, 4932
1677, 1701, 1702, 1803, 1802, 4832, 4833, 4934, 4933
1678, 1702, 1703, 1804, 1803, 4833, 4834, 4935, 4934
1679, 1703, 1704, 1805, 1804, 4834, 4835, 4936, 4935
1680, 1704, 1705, 1806, 1805, 4835, 4836, 4937, 4936
1681, 1705, 1706, 1807, 1806, 4836, 4837, 4938, 4937
1682, 1706, 1707, 1808, 1807, 4837, 4838, 4939, 4938
1683, 1707, 1708, 1809, 1808, 4838, 4839, 4940, 4939
1684, 1708, 1709, 1810, 1809, 4839, 4840, 4941, 4940
1685, 1709, 1710, 1811, 1810, 4840, 4841, 4942, 4941
1686, 1710, 1711, 1812, 1811, 4841, 4842, 4943, 4942
1687, 1711, 1712, 1813, 1812, 4842, 4843, 4944, 4943
1688, 1712, 1713, 1814, 1813, 4843, 4844, 4945, 4944
1689, 1713, 1714, 1815, 1814, 4844, 4845, 4946, 4945
1690, 1714, 1715, 1816, 1815, 4845, 4846, 4947, 4946
1691, 1715, 1716, 1817, 1816, 4846, 4847, 4948, 4947
1692, 1716, 1717, 1818, 1817, 4847, 4848, 4949, 4948
1693, 1718, 1719, 1820, 1819, 4849, 4850, 4951, 4950
1694, 1719, 1720, 1821, 1820, 4850, 4851, 4952, 4951
1695, 1720, 1721, 1822, 1821, 4851, 4852, 4953, 4952
1696, 1721, 1722, 1823, 1822, 4852, 4853, 4954, 4953
1697, 1722, 1723, 1824, 1823, 4853, 4854, 4955, 4954
1698, 1723, 1724, 1825, 1824, 4854, 4855, 4956, 4955
1699, 1724, 1725, 1826, 1825, 4855, 4856, 4957, 4956
1700, 1725, 1726, 1827, 1826, 4856, 4857, 4958, 4957
1701, 1726, 1727, 1828, 1827, 4857, 4858, 4959, 4958
1702, 1727, 1728, 1829, 1828, 4858, 4859, 4960, 4959
1703, 1728, 1729, 1830, 1829, 4859, 4860, 4961, 4960
1704, 1729, 1730, 1831, 1830, 4860, 4861, 4962, 4961
1705, 1730, 1731, 1832, 1831, 4861, 4862, 4963, 4962
1706, 1731, 1732, 1833, 1832, 4862, 4863, 4964, 4963
1707, 1732, 1733, 1834, 1833, 4863, 4864, 4965, 4964
1708, 1733, 1734, 1835, 1834, 4864, 4865, 4966, 4965
1709, 1734, 1735, 1836, 1835, 4865, 4866, 4967, 4966
1710, 1735, 1736, 1837, 1836, 4866, 4867, 4968, 4967
1711, 1736, 1737, 1838, 1837, 4867, 4868, 4969, 4968
1712, 1737, 1738, 1839, 1838, 4868, 4869, 4970, 4969
1713, 1738, 1739, 1840, 1839, 4869, 4870, 4971, 4970
1714, 1739, 1740, 1841, 1840, 4870, 4871, 4972, 4971
1715, 1740, 1741, 1842, 1841, 4871, 4872, 4973, 4972
1716, 1741, 1742, 1843, 1842, 4872, 4873, 4974, 4973
1717, 1742, 1743, 1844, 1843, 4873, 4874, 4975, 4974
1718, 1743, 1744, 1845, 1844, 4874, 4875, 4976, 4975
1719, 1744, 1745, 1846, 1845, 4875, 4876, 4977, 4976
1720, 1745, 1746, 1847, 1846, 4876, 4877, 4978, 4977
1721, 1746, 1747, 1848, 1847, 4877, 4878, 4979, 4978
1722, 1747, 1748, 1849, 1848, 4878, 4879, 4980, 4979
1723, 1748, 1749, 1850, 1849, 4879, 4880, 4981, 4980
1724, 1749, 1750, 1851, 1850, 4880, 4881, 4982, 4981
1725, 1750, 1751, 1852, 1851, 4881, 4882, 4983, 4982
1726, 1751, 1752, 1853, 1852, 4882, 4883, 4984, 4983
1727, 1752, 1753, 1854, 1853, 4883, 4884, 4985, 4984
1728, 1753, 1754, 1855, 1854, 4884, 4885, 4986, 4985
1729, 1754, 1755, 1856, 1855, 4885, 4886, 4987, 4986
1730, 1755, 1756, 1857, 1856, 4886, 4887, 4988, 4987
1731, 1756, 1757, 1858, 1857, 4887, 4888, 4989, 4988
1732, 1757, 1758, 1859, 1858, 4888, 4889, 4990, 4989
1733, 1758, 1759, 1860, 1859, 4889, 4890, 4991, 4990
1734, 1759, 1760, 1861, 1860, 4890, 4891, 4992, 4991
1735, 1760, 1761, 1862, 1861, 4891, 4892, 4993, 4992
1736, 1761, 1762, 1863, 1862, 4892, 4893, 4994, 4993
1737, 1762, 1763, 1864, 1863, 4893, 4894, 4995, 4994
1738, 1763, 1764, 1865, 1864, 4894, 4895, 4996, 4995
1739, 1764, 1765, 1866, 1865, 4895, 4896, 4997, 4996
1740, 1765, 1766, 1867, 1866, 4896, 4897, 4998, 4997
1741, 1766, 1767, 1868, 1867, 4897, 4898, 4999, 4998
1742, 1767, 1768, 1869, 1868, 4898, 4899, 5000, 4999
1743, 1768, 1769, 1870, 1869, 4899, 4900, 5001, 5000
1744, 1769, 1770, 1871, 1870, 4900, 4901, 5002, 5001
1745, 1770, 1771, 1872, 1871, 4901, 4902, 5003, 5002
1746, 1771, 1772, 1873, 1872, 4902, 4903, 5004, 5003
1747, 1772, 1773, 1874, 1873, 4903, 4904, 5005, 5004
1748, 1773, 1774, 1875, 1874, 4904, 4905, 5006, 5005
1749, 1774, 1775, 1876, 1875, 4905, 4906, 5007, 5006
1750, 1775, 1776, 1877, 1876, 4906, 4907, 5008, 5007
1751, 1776, 1777, 1878, 1877, 4907, 4908, 5009, 5008
1752, 1777, 1778, 1879, 1878, 4908, 4909, 5010, 5009
1753, 1778, 1779, 1880, 1879, 4909, 4910, 5011, 5010
1754, 1779, 1780, 1881, 1880, 4910, 4911, 5012, 5011
1755, 1780, 1781, 1882, 1881, 4911, 4912, 5013, 5012
1756, 1781, 1782, 1883, 1882, 4912, 4913, 5014, 5013
1757, 1782, 1783, 1884, 1883, 4913, 4914, 5015, 5014
1758, 1783, 1784, 1885, 1884, 4914, 4915, 5016, 5015
1759, 1784, 1785, 1886, 1885, 4915, 4916, 5017, 5016
1760, 1785, 1786, 1887, 1886, 4916, 4917, 5018, 5017
1761, 1786, 1787, 1888, 1887, 4917, 4918, 5019, 5018
1762, 1787, 1788, 1889, 1888, 4918, 4919, 5020, 5019
1763, 1788, 1789, 1890, 1889, 4919, 4920, 5021, 5020
1764, 1789, 1790, 1891, 1890, 4920, 4921, 5022, 5021
1765, 1790, 1791, 1892, 1891, 4921, 4922, 5023, 5022
1766, 1791, 1792, 1893, 1892, 4922, 4923, 5024, 5023
1767, 1792, 1793, 1894, 1893, 4923, 4924, 5025, 5024
1768, 1793, 1794, 1895, 1894, 4924, 4925, 5026, 5025
1769, 1794, 1795, 1896, 1895, 4925, 4926, 5027, 5026
1770, 1795, 1796, 1897, 1896, 4926, 4927, 5028, 5027
1771, 1796, 1797, 1898, 1897, 4927, 4928, 5029, 5028
1772, 1797, 1798, 1899, 1898, 4928, 4929, 5030, 5029
1773, 1798, 1799, 1900, 1899, 4929, 4930, 5031, 5030
1774, 1799, 1800, 1901, 1900, 4930, 4931, 5032, 5031
1775, 1800, 1801, 1902, 1901, 4931, 4932, 5033, 5032
1776, 1801, 1802, 1903, 1902, 4932, 4933, 5034, 5033
1777, 1802, 1803, 1904, 1903, 4933, 4934, 5035, 5034
1778, 1803, 1804, 1905, 1904, 4934, 4935, 5036, 5035
1779, 1804, 1805, 1906, 1905, 4935, 4936, 5037, 5036
1780, 1805, 1806, 1907, 1906, 4936, 4937, 5038, 5037
1781, 1806, 1807, 1908, 1907, 4937, 4938, 5039, 5038
1782, 1807, 1808, 1909, 1908, 4938, 4939, 5040, 5039
1783, 1808, 1809, 1910, 1909, 4939, 4940, 5041, 5040
1784, 1809, 1810, 1911, 1910, 4940, 4941, 5042, 5041
1785, 1810, 1811, 1912, 1911, 4941, 4942, 5043, 5042
1786, 1811, 1812, 1913, 1912, 4942, 4943, 5044, 5043
1787, 1812, 1813, 1914, 1913, 4943, 4944, 5045, 5044
1788, 1813, 1814, 1915, 1914, 4944, 4945, 5046, 5045
1789, 1814, 1815, 1916, 1915, 4945, 4946, 5047, 5046
1790, 1815, 1816, 1917, 1916, 4946, 4947, 5048, 5047
1791, 1816, 1817, 1918, 1917, 4947, 4948, 5049, 5048
1792, 1817, 1818, 1919, 1918, 4948, 4949, 5050, 5049
1793, 1819, 1820, 1921, 1920, 4950, 4951, 5052, 5051
1794, 1820, 1821, 1922, 1921, 4951, 4952, 5053, 5052
1795, 1821, 1822, 1923, 1922, 4952, 4953, 5054, 5053
1796, 1822, 1823, 1924, 1923, 4953, 4954, 5055, 5054
1797, 1823, 1824, 1925, 1924, 4954, 4955, 5056, 5055
1798, 1824, 1825, 1926, 1925, 4955, 4956, 5057, 5056
1799, 1825, 1826, 1927, 1926, 4956, 4957, 5058, 5057
1800, 1826, 1827, 1928, 1927, 4957, 4958, 5059, 5058
1801, 1827, 1828, 1929, 1928, 4958, 4959, 5060, 5059
1802, 1828, 1829, 1930, 1929, 4959, 4960, 5061, 5060
1803, 1829, 1830, 1931, 1930, 4960, 4961, 5062, 5061
1804, 1830, 1831, 1932, 1931, 4961, 4962, 5063, 5062
1805, 1831, 1832, 1933, 1932, 4962, 4963, 5064, 5063
1806, 1832, 1833, 1934, 1933, 4963, 4964, 5065, 5064
1807, 1833, 1834, 1935, 1934, 4964, 4965, 5066, 5065
1808, 1834, 1835, 1936, 1935, 4965, 4966, 5067, 5066
1809, 1835, 1836, 1937, 1936, 4966, 4967, 5068, 5067
1810, 1836, 1837, 1938, 1937, 4967, 4968, 5069, 5068
1811, 1837, 1838, 1939, 1938, 4968, 4969, 5070, 5069
1812, 1838, 1839, 1940, 1939, 4969, 4970, 5071, 5070
1813, 1839, 1840, 1941, 1940, 4970, 4971, 5072, 5071
1814, 1840, 1841, 1942, 1941, 4971, 4972, 5073, 5072
1815, 1841, 1842, 1943, 1942, 4972, 4973, 5074, 5073
1816, 1842, 1843, 1944, 1943, 4973, 4974, 5075, 5074
1817, 1843, 1844, 1945, 1944, 4974, 4975, 5076, 5075
1818, 1844, 1845, 1946, 1945, 4975, 4976, 5077, 5076
1819, 1845, 1846, 1947, 1946, 4976, 4977, 5078, 5077
1820, 1846, 1847, 1948, 1947, 4977, 4978, 5079, 5078
1821, 1847, 1848, 1949, 1948, 4978, 4979, 5080, 5079
1822, 1848, 1849, 1950, 1949, 4979, 4980, 5081, 5080
1823, 1849, 1850, 1951, 1950, 4980, 4981, 5082, 5081
1824, 1850, 1851, 1952, 1951, 4981, 4982, 5083, 5082
1825, 1851, 1852, 1953, 1952, 4982, 4983, 5084, 5083
1826, 1852, 1853, 1954, 1953, 4983, 4984, 5085, 5084
1827, 1853, 1854, 1955, 1954, 4984, 4985, 5086, 5085
1828, 1854, 1855, 1956, 1955, 4985, 4986, 5087, 5086
1829, 1855, 1856, 1957, 1956, 4986, 4987, 5088, 5087
1830, 1856, 1857, 1958, 1957, 4987, 4988, 5089, 5088
1831, 1857, 1858, 1959, 1958, 4988, 4989, 5090, 5089
1832, 1858, 1859, 1960, 1959, 4989, 4990, 5091, 5090
1833, 1859, 1860, 1961, 1960, 4990, 4991, 5092, 5091
1834, 1860, 1861, 1962, 1961, 4991, 4992, 5093, 5092
1835, 1861, 1862, 1963, 1962, 4992, 4993, 5094, 5093
1836, 1862, 1863, 1964, 1963, 4993, 4994, 5095, 5094
1837, 1863, 1864, 1965, 1964, 4994, 4995, 5096, 5095
1838, 1864, 1865, 1966, 1965, 4995, 4996, 5097, 5096
1839, 1865, 1866, 1967, 1966, 4996, 4997, 5098, 5097
1840, 1866, 1867, 1968, 1967, 4997, 4998, 5099, 5098
1841, 1867, 1868, 1969, 1968, 4998, 4999, 5100, 5099
1842, 1868, 1869, 1970, 1969, 4999, 5000, 5101, 5100
1843, 1869, 1870, 1971, 1970, 5000, 5001, 5102, 5101
1844, 1870, 1871, 1972, 1971, 5001, 5002, 5103, 5102
1845, 1871, 1872, 1973, 1972, 5002, 5003, 5104, 5103
1846, 1872, 1873, 1974, 1973, 5003, 5004, 5105, 5104
1847, 1873, 1874, 1975, 1974, 5004, 5005, 5106, 5105
1848, 1874, 1875, 1976, 1975, 5005, 5006, 5107, 5106
1849, 1875, 1876, 1977, 1976, 5006, 5007, 5108, 5107
1850, 1876, 1877, 1978, 1977, 5007, 5008, 5109, 5108
1851, 1877, 1878, 1979, 1978, 5008, 5009, 5110, 5109
1852, 1878, 1879, 1980, 1979, 5009, 5010, 5111, 5110
1853, 1879, 1880, 1981, 1980, 5010, 5011, 5112, 5111
1854, 1880, 1881, 1982, 1981, 5011, 5012, 5113, 5112
1855, 1881, 1882, 1983, 1982, 5012, 5013, 5114, 5113
1856, 1882, 1883, 1984, 1983, 5013, 5014, 5115, 5114
1857, 1883, 1884, 1985, 1984, 5014, 5015, 5116, 5115
1858, 1884, 1885, 1986, 1985, 5015, 5016, 5117, 5116
1859, 1885, 1886, 1987, 1986, 5016, 5017, 5118, 5117
1860, 1886, 1887, 1988, 1987, 5017, 5018, 5119, 5118
1861, 1887, 1888, 1989, 1988, 5018, 5019, 5120, 5119
1862, 1888, 1889, 1990, 1989, 5019, 5020, 5121, 5120
1863, 1889, 1890, 1991, 1990, 5020, 5021, 5122, 5121
1864, 1890, 1891, 1992, 1991, 5021, 5022, 5123, 5122
1865, 1891, 1892, 1993, 1992, 5022, 5023, 5124, 5123
1866, 1892, 1893, 1994, 1993, 5023, 5024, 5125, 5124
1867, 1893, 1894, 1995, 1994, 5024, 5025, 5126, 5125
1868, 1894, 1895, 1996, 1995, 5025, 5026, 5127, 5126
1869, 1895, 1896, 1997, 1996, 5026, 5027, 5128, 5127
1870, 1896, 1897, 1998, 1997, 5027, 5028, 5129, 5128
1871, 1897, 1898, 1999, 1998, 5028, 5029, 5130, 5129
1872, 1898, 1899, 2000, 1999, 5029, 5030, 5131, 5130
1873, 1899, 1900, 2001, 2000, 5030, 5031, 5132, 5131
1874, 1900, 1901, 2002, 2001, 5031, 5032, 5133, 5132
1875, 1901, 1902, 2003, 2002, 5032, 5033, 5134, 5133
1876, 1902, 1903, 2004, 2003, 5033, 5034, 5135, 5134
1877, 1903, 1904, 2005, 2004, 5034, 5035, 5136, 5135
1878, 1904, 1905, 2006, 2005, 5035, 5036, 5137, 5136
1879, 1905, 1906, 2007, 2006, 5036, 5037, 5138, 5137
1880, 1906, 1907, 2008, 2007, 5037, 5038, 5139, 5138
1881, 1907, 1908, 2009, 2008, 5038, 5039, 5140, 5139
1882, 1908, 1909, 2010, 2009, 5039, 5040, 5141, 5140
1883, 1909, 1910, 2011, 2010, 5040, 5041, 5142, 5141
1884, 1910, 1911, 2012, 2011, 5041, 5042, 5143, 5142
1885, 1911, 1912, 2013, 2012, 5042, 5043, 5144, 5143
1886, 1912, 1913, 2014, 2013, 5043, 5044, 5145, 5144
1887, 1913, 1914, 2015, 2014, 5044, 5045, 5146, 5145
1888, 1914, 1915, 2016, 2015, 5045, 5046, 5147, 5146
1889, 1915, 1916, 2017, 2016, 5046, 5047, 5148, 5147
1890, 1916, 1917, 2018, 2017, 5047, 5048, 5149, 5148
1891, 1917, 1918, 2019, 2018, 5048, 5049, 5150, 5149
1892, 1918, 1919, 2020, 2019, 5049, 5050, 5151, 5150
1893, 1920, 1921, 2022, 2021, 5051, 5052, 5153, 5152
1894, 1921, 1922, 2023, 2022, 5052, 5053, 5154, 5153
1895, 1922, 1923, 2024, 2023, 5053, 5054, 5155, 5154
1896, 1923, 1924, 2025, 2024, 5054, 5055, 5156, 5155
1897, 1924, 1925, 2026, 2025, 5055, 5056, 5157, 5156
1898, 1925, 1926, 2027, 2026, 5056, 5057, 5158, 5157
1899, 1926, 1927, 2028, 2027, 5057, 5058, 5159, 5158
1900, 1927, 1928, 2029, 2028, 5058, 5059, 5160, 5159
1901, 1928, 1929, 2030, 2029, 5059, 5060, 5161, 5160
1902, 1929, 1930, 2031, 2030, 5060, 5061, 5162, 5161
1903, 1930, 1931, 2032, 2031, 5061, 5062, 5163, 5162
1904, 1931, 1932, 2033, 2032, 5062, 5063, 5164, 5163
1905, 1932, 1933, 2034, 2033, 5063, 5064, 5165, 5164
1906, 1933, 1934, 2035, 2034, 5064, 5065, 5166, 5165
1907, 1934, 1935, 2036, 2035, 5065, 5066, 5167, 5166
1908, 1935, 1936, 2037, 2036, 5066, 5067, 5168, 5167
1909, 1936, 1937, 2038, 2037, 5067, 5068, 5169, 5168
1910, 1937, 1938, 2039, 2038, 5068, 5069, 5170, 5169
1911, 1938, 1939, 2040, 2039, 5069, 5070, 5171, 5170
1912, 1939, 1940, 2041, 2040, 5070, 5071, 5172, 5171
1913, 1940, 1941, 2042, 2041, 5071, 5072, 5173, 5172
1914, 1941, 1942, 2043, 2042, 5072, 5073, 5174, 5173
1915, 1942, 1943, 2044, 2043, 5073, 5074, 5175, 5174
1916, 1943, 1944, 2045, 2044, 5074, 5075, 5176, 5175
1917, 1944, 1945, 2046, 2045, 5075, 5076, 5177, 5176
1918, 1945, 1946, 2047, 2046, 5076, 5077, 5178, 5177
1919, 1946, 1947, 2048, 2047, 5077, 5078, 5179, 5178
1920, 1947, 1948, 2049, 2048, 5078, 5079, 5180, 5179
1921, 1948, 1949, 2050, 2049, 5079, 5080, 5181, 5180
1922, 1949, 1950, 2051, 2050, 5080, 5081, 5182, 5181
1923, 1950, 1951, 2052, 2051, 5081, 5082, 5183, 5182
1924, 1951, 1952, 2053, 2052, 5082, 5083, 5184, 5183
1925, 1952, 1953, 2054, 2053, 5083, 5084, 5185, 5184
1926, 1953, 1954, 2055, 2054, 5084, 5085, 5186, 5185
1927, 1954, 1955, 2056, 2055, 5085, 5086, 5187, 5186
1928, 1955, 1956, 2057, 2056, 5086, 5087, 5188, 5187
1929, 1956, 1957, 2058, 2057, 5087, 5088, 5189, 5188
1930, 1957, 1958, 2059, 2058, 5088, 5089, 5190, 5189
1931, 1958, 1959, 2060, 2059, 5089, 5090, 5191, 5190
1932, 1959, 1960, 2061, 2060, 5090, 5091, 5192, 5191
1933, 1960, 1961, 2062, 2061, 5091, 5092, 5193, 5192
1934, 1961, 1962, 2063, 2062, 5092, 5093, 5194, 5193
1935, 1962, 1963, 2064, 2063, 5093, 5094, 5195, 5194
1936, 1963, 1964, 2065, 2064, 5094, 5095, 5196, 5195
1937, 1964, 1965, 2066, 2065, 5095, 5096, 5197, 5196
1938, 1965, 1966, 2067, 2066, 5096, 5097, 5198, 5197
1939, 1966, 1967, 2068, 2067, 5097, 5098, 5199, 5198
1940, 1967, 1968, 2069, 2068, 5098, 5099, 5200, 5199
1941, 1968, 1969, 2070, 2069, 5099, 5100, 5201, 5200
1942, 1969, 1970, 2071, 2070, 5100, 5101, 5202, 5201
1943, 1970, 1971, 2072, 2071, 5101, 5102, 5203, 5202
1944, 1971, 1972, 2073, 2072, 5102, 5103, 5204, 5203
1945, 1972, 1973, 2074, 2073, 5103, 5104, 5205, 5204
1946, 1973, 1974, 2075, 2074, 5104, 5105, 5206, 5205
1947, 1974, 1975, 2076, 2075, 5105, 5106, 5207, 5206
1948, 1975, 1976, 2077, 2076, 5106, 5107, 5208, 5207
1949, 1976, 1977, 2078, 2077, 5107, 5108, 5209, 5208
1950, 1977, 1978, 2079, 2078, 5108, 5109, 5210, 5209
1951, 1978, 1979, 2080, 2079, 5109, 5110, 5211, 5210
1952, 1979, 1980, 2081, 2080, 5110, 5111, 5212, 5211
1953, 1980, 1981, 2082, 2081, 5111, 5112, 5213, 5212
1954, 1981, 1982, 2083, 2082, 5112, 5113, 5214, 5213
1955, 1982, 1983, 2084, 2083, 5113, 5114, 5215, 5214
1956, 1983, 1984, 2085, 2084, 5114, 5115, 5216, 5215
1957, 1984, 1985, 2086, 2085, 5115, 5116, 5217, 5216
1958, 1985, 1986, 2087, 2086, 5116, 5117, 5218, 5217
1959, 1986, 1987, 2088, 2087, 5117, 5118, 5219, 5218
1960, 1987, 1988, 2089, 2088, 5118, 5119, 5220, 5219
1961, 1988, 1989, 2090, 2089, 5119, 5120, 5221, 5220
1962, 1989, 1990, 2091, 2090, 5120, 5121, 5222, 5221
1963, 1990, 1991, 2092, 2091, 5121, 5122, 5223, 5222
1964, 1991, 1992, 2093, 2092, 5122, 5123, 5224, 5223
1965, 1992, 1993, 2094, 2093, 5123, 5124, 5225, 5224
1966, 1993, 1994, 2095, 2094, 5124, 5125, 5226, 5225
1967, 1994, 1995, 2096, 2095, 5125, 5126, 5227, 5226
1968, 1995, 1996, 2097, 2096, 5126, 5127, 5228, 5227
1969, 1996, 1997, 2098, 2097, 5127, 5128, 5229, 5228
1970, 1997, 1998, 2099, 2098, 5128, 5129, 5230, 5229
1971, 1998, 1999, 2100, 2099, 5129, 5130, 5231, 5230
1972, 1999, 2000, 2101, 2100, 5130, 5131, 5232, 5231
1973, 2000, 2001, 2102, 2101, 5131, 5132, 5233, 5232
1974, 2001, 2002, 2103, 2102, 5132, 5133, 5234, 5233
1975, 2002, 2003, 2104, 2103, 5133, 5134, 5235, 5234
1976, 2003, 2004, 2105, 2104, 5134, 5135, 5236, 5235
1977, 2004, 2005, 2106, 2105, 5135, 5136, 5237, 5236
1978, 2005, 2006, 2107, 2106, 5136, 5137, 5238, 5237
1979, 2006, 2007, 2108, 2107, 5137, 5138, 5239, 5238
1980, 2007, 2008, 2109, 2108, 5138, 5139, 5240, 5239
1981, 2008, 2009, 2110, 2109, 5139, 5140, 5241, 5240
1982, 2009, 2010, 2111, 2110, 5140, 5141, 5242, 5241
1983, 2010, 2011, 2112, 2111, 5141, 5142, 5243, 5242
1984, 2011, 2012, 2113, 2112, 5142, 5143, 5244, 5243
1985, 2012, 2013, 2114, 2113, 5143, 5144, 5245, 5244
1986, 2013, 2014, 2115, 2114, 5144, 5145, 5246, 5245
1987, 2014, 2015, 2116, 2115, 5145, 5146, 5247, 5246
1988, 2015, 2016, 2117, 2116, 5146, 5147, 5248, 5247
1989, 2016, 2017, 2118, 2117, 5147, 5148, 5249, 5248
1990, 2017, 2018, 2119, 2118, 5148, 5149, 5250, 5249
1991, 2018, 2019, 2120, 2119, 5149, 5150, 5251, 5250
1992, 2019, 2020, 2121, 2120, 5150, 5151, 5252, 5251
1993, 2021, 2022, 2123, 2122, 5152, 5153, 5254, 5253
1994, 2022, 2023, 2124, 2123, 5153, 5154, 5255, 5254
1995, 2023, 2024, 2125, 2124, 5154, 5155, 5256, 5255
1996, 2024, 2025, 2126, 2125, 5155, 5156, 5257, 5256
1997, 2025, 2026, 2127, 2126, 5156, 5157, 5258, 5257
1998, 2026, 2027, 2128, 2127, 5157, 5158, 5259, 5258
1999, 2027, 2028, 2129, 2128, 5158, 5159, 5260, 5259
2000, 2028, 2029, 2130, 2129, 5159, 5160, 5261, 5260
2001, 2029, 2030, 2131, 2130, 5160, 5161, 5262, 5261
2002, 2030, 2031, 2132, 2131, 5161, 5162, 5263, 5262
2003, 2031, 2032, 2133, 2132, 5162, 5163, 5264, 5263
2004, 2032, 2033, 2134, 2133, 5163, 5164, 5265, 5264
2005, 2033, 2034, 2135, 2134, 5164, 5165, 5266, 5265
2006, 2034, 2035, 2136, 2135, 5165, 5166, 5267, 5266
2007, 2035, 2036, 2137, 2136, 5166, 5167, 5268, 5267
2008, 2036, 2037, 2138, 2137, 5167, 5168, 5269, 5268
2009, 2037, 2038, 2139, 2138, 5168, 5169, 5270, 5269
2010, 2038, 2039, 2140, 2139, 5169, 5170, 5271, 5270
2011, 2039, 2040, 2141, 2140, 5170, 5171, 5272, 5271
2012, 2040, 2041, 2142, 2141, 5171, 5172, 5273, 5272
2013, 2041, 2042, 2143, 2142, 5172, 5173, 5274, 5273
2014, 2042, 2043, 2144, 2143, 5173, 5174, 5275, 5274
2015, 2043, 2044, 2145, 2144, 5174, 5175, 5276, 5275
2016, 2044, 2045, 2146, 2145, 5175, 5176, 5277, 5276
2017, 2045, 2046, 2147, 2146, 5176, 5177, 5278, 5277
2018, 2046, 2047, 2148, 2147, 5177, 5178, 5279, 5278
2019, 2047, 2048, 2149, 2148, 5178, 5179, 5280, 5279
2020, 2048, 2049, 2150, 2149, 5179, 5180, 5281, 5280
2021, 2049, 2050, 2151, 2150, 5180, 5181, 5282, 5281
2022, 2050, 2051, 2152, 2151, 5181, 5182, 5283, 5282
2023, 2051, 2052, 2153, 2152, 5182, 5183, 5284, 5283
2024, 2052, 2053, 2154, 2153, 5183, 5184, 5285, 5284
2025, 2053, 2054, 2155, 2154, 5184, 5185, 5286, 5285
2026, 2054, 2055, 2156, 2155, 5185, 5186, 5287, 5286
2027, 2055, 2056, 2157, 2156, 5186, 5187, 5288, 5287
2028, 2056, 2057, 2158, 2157, 5187, 5188, 5289, 5288
2029, 2057, 2058, 2159, 2158, 5188, 5189, 5290, 5289
2030, 2058, 2059, 2160, 2159, 5189, 5190, 5291, 5290
2031, 2059, 2060, 2161, 2160, 5190, 5191, 5292, 5291
2032, 2060, 2061, 2162, 2161, 5191, 5192, 5293, 5292
2033, 2061, 2062, 2163, 2162, 5192, 5193, 5294, 5293
2034, 2062, 2063, 2164, 2163, 5193, 5194, 5295, 5294
2035, 2063, 2064, 2165, 2164, 5194, 5195, 5296, 5295
2036, 2064, 2065, 2166, 2165, 5195, 5196, 5297, 5296
2037, 2065, 2066, 2167, 2166, 5196, 5197, 5298, 5297
2038, 2066, 2067, 2168, 2167, 5197, 5198, 5299, 5298
2039, 2067, 2068, 2169, 2168, 5198, 5199, 5300, 5299
2040, 2068, 2069, 2170, 2169, 5199, 5200, 5301, 5300
2041, 2069, 2070, 2171, 2170, 5200, 5201, 5302, 5301
2042, 2070, 2071, 2172, 2171, 5201, 5202, 5303, 5302
2043, 2071, 2072, 2173, 2172, 5202, 5203, 5304, 5303
2044, 2072, 2073, 2174, 2173, 5203, 5204, 5305, 5304
2045, 2073, 2074, 2175, 2174, 5204, 5205, 5306, 5305
2046, 2074, 2075, 2176, 2175, 5205, 5206, 5307, 5306
2047, 2075, 2076, 2177, 2176, 5206, 5207, 5308, 5307
2048, 2076, 2077, 2178, 2177, 5207, 5208, 5309, 5308
2049, 2077, 2078, 2179, 2178, 5208, 5209, 5310, 5309
2050, 2078, 2079, 2180, 2179, 5209, 5210, 5311, 5310
2051, 2079, 2080, 2181, 2180, 5210, 5211, 5312, 5311
2052, 2080, 2081, 2182, 2181, 5211, 5212, 5313, 5312
2053, 2081, 2082, 2183, 2182, 5212, 5213, 5314, 5313
2054, 2082, 2083, 2184, 2183, 5213, 5214, 5315, 5314
2055, 2083, 2084, 2185, 2184, 5214, 5215, 5316, 5315
2056, 2084, 2085, 2186, 2185, 5215, 5216, 5317, 5316
2057, 2085, 2086, 2187, 2186, 5216, 5217, 5318, 5317
2058, 2086, 2087, 2188, 2187, 5217, 5218, 5319, 5318
2059, 2087, 2088, 2189, 2188, 5218, 5219, 5320, 5319
2060, 2088, 2089, 2190, 2189, 5219, 5220, 5321, 5320
2061, 2089, 2090, 2191, 2190, 5220, 5221, 5322, 5321
2062, 2090, 2091, 2192, 2191, 5221, 5222, 5323, 5322
2063, 2091, 2092, 2193, 2192, 5222, 5223, 5324, 5323
2064, 2092, 2093, 2194, 2193, 5223, 5224, 5325, 5324
2065, 2093, 2094, 2195, 2194, 5224, 5225, 5326, 5325
2066, 2094, 2095, 2196, 2195, 5225, 5226, 5327, 5326
2067, 2095, 2096, 2197, 2196, 5226, 5227, 5328, 5327
2068, 2096, 2097, 2198, 2197, 5227, 5228, 5329, 5328
2069, 2097, 2098, 2199, 2198, 5228, 5229, 5330, 5329
2070, 2098, 2099, 2200, 2199, 5229, 5230, 5331, 5330
2071, 2099, 2100, 2201, 2200, 5230, 5231, 5332, 5331
2072, 2100, 2101, 2202, 2201, 5231, 5232, 5333, 5332
2073, 2101, 2102, 2203, 2202, 5232, 5233, 5334, 5333
2074, 2102, 2103, 2204, 2203, 5233, 5234, 5335, 5334
2075, 2103, 2104, 2205, 2204, 5234, 5235, 5336, 5335
2076, 2104, 2105, 2206, 2205, 5235, 5236, 5337, 5336
2077, 2105, 2106, 2207, 2206, 5236, 5237, 5338, 5337
2078, 2106, 2107, 2208, 2207, 5237, 5238, 5339, 5338
2079, 2107, 2108, 2209, 2208, 5238, 5239, 5340, 5339
2080, 2108, 2109, 2210, 2209, 5239, 5240, 5341, 5340
2081, 2109, 2110, 2211, 2210, 5240, 5241, 5342, 5341
2082, 2110, 2111, 2212, 2211, 5241, 5242, 5343, 5342
2083, 2111, 2112, 2213, 2212, 5242, 5243, 5344, 5343
2084, 2112, 2113, 2214, 2213, 5243, 5244, 5345, 5344
2085, 2113, 2114, 2215, 2214, 5244, 5245, 5346, 5345
2086, 2114, 2115, 2216, 2215, 5245, 5246, 5347, 5346
2087, 2115, 2116, 2217, 2216, 5246, 5247, 5348, 5347
2088, 2116, 2117, 2218, 2217, 5247, 5248, 5349, 5348
2089, 2117, 2118, 2219, 2218, 5248, 5249, 5350, 5349
2090, 2118, 2119, 2220, 2219, 5249, 5250, 5351, 5350
2091, 2119, 2120, 2221, 2220, 5250, 5251, 5352, 5351
2092, 2120, 2121, 2222, 2221, 5251, 5252, 5353, 5352
2093, 2122, 2123, 2224, 2223, 5253, 5254, 5355, 5354
2094, 2123, 2124, 2225, 2224, 5254, 5255, 5356, 5355
2095, 2124, 2125, 2226, 2225, 5255, 5256, 5357, 5356
2096, 2125, 2126, 2227, 2226, 5256, 5257, 5358, 5357
2097, 2126, 2127, 2228, 2227, 5257, 5258, 5359, 5358
2098, 2127, 2128, 2229, 2228, 5258, 5259, 5360, 5359
2099, 2128, 2129, 2230, 2229, 5259, 5260, 5361, 5360
2100, 2129, 2130, 2231, 2230, 5260, 5261, 5362, 5361
2101, 2130, 2131, 2232, 2231, 5261, 5262, 5363, 5362
2102, 2131, 2132, 2233, 2232, 5262, 5263, 5364, 5363
2103, 2132, 2133, 2234, 2233, 5263, 5264, 5365, 5364
2104, 2133, 2134, 2235, 2234, 5264, 5265, 5366, 5365
2105, 2134, 2135, 2236, 2235, 5265, 5266, 5367, 5366
2106, 2135, 2136, 2237, 2236, 5266, 5267, 5368, 5367
2107, 2136, 2137, 2238, 2237, 5267, 5268, 5369, 5368
2108, 2137, 2138, 2239, 2238, 5268, 5269, 5370, 5369
2109, 2138, 2139, 2240, 2239, 5269, 5270, 5371, 5370
2110, 2139, 2140, 2241, 2240, 5270, 5271, 5372, 5371
2111, 2140, 2141, 2242, 2241, 5271, 5272, 5373, 5372
2112, 2141, 2142, 2243, 2242, 5272, 5273, 5374, 5373
2113, 2142, 2143, 2244, 2243, 5273, 5274, 5375, 5374
2114, 2143, 2144, 2245, 2244, 5274, 5275, 5376, 5375
2115, 2144, 2145, 2246, 2245, 5275, 5276, 5377, 5376
2116, 2145, 2146, 2247, 2246, 5276, 5277, 5378, 5377
2117, 2146, 2147, 2248, 2247, 5277, 5278, 5379, 5378
2118, 2147, 2148, 2249, 2248, 5278, 5279, 5380, 5379
2119, 2148, 2149, 2250, 2249, 5279, 5280, 5381, 5380
2120, 2149, 2150, 2251, 2250, 5280, 5281, 5382, 5381
2121, 2150, 2151, 2252, 2251, 5281, 5282, 5383, 5382
2122, 2151, 2152, 2253, 2252, 5282, 5283, 5384, 5383
2123, 2152, 2153, 2254, 2253, 5283, 5284, 5385, 5384
2124, 2153, 2154, 2255, 2254, 5284, 5285, 5386, 5385
2125, 2154, 2155, 2256, 2255, 5285, 5286, 5387, 5386
2126, 2155, 2156, 2257, 2256, 5286, 5287, 5388, 5387
2127, 2156, 2157, 2258, 2257, 5287, 5288, 5389, 5388
2128, 2157, 2158, 2259, 2258, 5288, 5289, 5390, 5389
2129, 2158, 2159, 2260, 2259, 5289, 5290, 5391, 5390
2130, 2159, 2160, 2261, 2260, 5290, 5291, 5392, 5391
2131, 2160, 2161, 2262, 2261, 5291, 5292, 5393, 5392
2132, 2161, 2162, 2263, 2262, 5292, 5293, 5394, 5393
2133, 2162, 2163, 2264, 2263, 5293, 5294, 5395, 5394
2134, 2163, 2164, 2265, 2264, 5294, 5295, 5396, 5395
2135, 2164, 2165, 2266, 2265, 5295, 5296, 5397, 5396
2136, 2165, 2166, 2267, 2266, 5296, 5297, 5398, 5397
2137, 2166, 2167, 2268, 2267, 5297, 5298, 5399, 5398
2138, 2167, 2168, 2269, 2268, 5298, 5299, 5400, 5399
2139, 2168, 2169, 2270, 2269, 5299, 5300, 5401, 5400
2140, 2169, 2170, 2271, 2270, 5300, 5301, 5402, 5401
2141, 2170, 2171, 2272, 2271, 5301, 5302, 5403, 5402
2142, 2171, 2172, 2273, 2272, 5302, 5303, 5404, 5403
2143, 2172, 2173, 2274, 2273, 5303, 5304, 5405, 5404
2144, 2173, 2174, 2275, 2274, 5304, 5305, 5406, 5405
2145, 2174, 2175, 2276, 2275, 5305, 5306, 5407, 5406
2146, 2175, 2176, 2277, 2276, 5306, 5307, 5408, 5407
2147, 2176, 2177, 2278, 2277, 5307, 5308, 5409, 5408
2148, 2177, 2178, 2279, 2278, 5308, 5309, 5410, 5409
2149, 2178, 2179, 2280, 2279, 5309, 5310, 5411, 5410
2150, 2179, 2180, 2281, 2280, 5310, 5311, 5412, 5411
2151, 2180, 2181, 2282, 2281, 5311, 5312, 5413, 5412
2152, 2181, 2182, 2283, 2282, 5312, 5313, 5414, 5413
2153, 2182, 2183, 2284, 2283, 5313, 5314, 5415, 5414
2154, 2183, 2184, 2285, 2284, 5314, 5315, 5416, 5415
2155, 2184, 2185, 2286, 2285, 5315, 5316, 5417, 5416
2156, 2185, 2186, 2287, 2286, 5316, 5317, 5418, 5417
2157, 2186, 2187, 2288, 2287, 5317, 5318, 5419, 5418
2158, 2187, 2188, 2289, 2288, 5318, 5319, 5420, 5419
2159, 2188, 2189, 2290, 2289, 5319, 5320, 5421, 5420
2160, 2189, 2190, 2291, 2290, 5320, 5321, 5422, 5421
2161, 2190, 2191, 2292, 2291, 5321, 5322, 5423, 5422
2162, 2191, 2192, 2293, 2292, 5322, 5323, 5424, 5423
2163, 2192, 2193, 2294, 2293, 5323, 5324, 5425, 5424
2164, 2193, 2194, 2295, 2294, 5324, 5325, 5426, 5425
2165, 2194, 2195, 2296, 2295, 5325, 5326, 5427, 5426
2166, 2195, 2196, 2297, 2296, 5326, 5327, 5428, 5427
2167, 2196, 2197, 2298, 2297, 5327, 5328, 5429, 5428
2168, 2197, 2198, 2299, 2298, 5328, 5329, 5430, 5429
2169, 2198, 2199, 2300, 2299, 5329, 5330, 5431, 5430
2170, 2199, 2200, 2301, 2300, 5330, 5331, 5432, 5431
2171, 2200, 2201, 2302, 2301, 5331, 5332, 5433, 5432
2172, 2201, 2202, 2303, 2302, 5332, 5333, 5434, 5433
2173, 2202, 2203, 2304, 2303, 5333, 5334, 5435, 5434
2174, 2203, 2204, 2305, 2304, 5334, 5335, 5436, 5435
2175, 2204, 2205, 2306, 2305, 5335, 5336, 5437, 5436
2176, 2205, 2206, 2307, 2306, 5336, 5337, 5438, 5437
2177, 2206, 2207, 2308, 2307, 5337, 5338, 5439, 5438
2178, 2207, 2208, 2309, 2308, 5338, 5339, 5440, 5439
2179, 2208, 2209, 2310, 2309, 5339, 5340, 5441, 5440
2180, 2209, 2210, 2311, 2310, 5340, 5341, 5442, 5441
2181, 2210, 2211, 2312, 2311, 5341, 5342, 5443, 5442
2182, 2211, 2212, 2313, 2312, 5342, 5343, 5444, 5443
2183, 2212, 2213, 2314, 2313, 5343, 5344, 5445, 5444
2184, 2213, 2214, 2315, 2314, 5344, 5345, 5446, 5445
2185, 2214, 2215, 2316, 2315, 5345, 5346, 5447, 5446
2186, 2215, 2216, 2317, 2316, 5346, 5347, 5448, 5447
2187, 2216, 2217, 2318, 2317, 5347, 5348, 5449, 5448
2188, 2217, 2218, 2319, 2318, 5348, 5349, 5450, 5449
2189, 2218, 2219, 2320, 2319, 5349, 5350, 5451, 5450
2190, 2219, 2220, 2321, 2320, 5350, 5351, 5452, 5451
2191, 2220, 2221, 2322, 2321, 5351, 5352, 5453, 5452
2192, 2221, 2222, 2323, 2322, 5352, 5353, 5454, 5453
2193, 2223, 2224, 2325, 2324, 5354, 5355, 5456, 5455
2194, 2224, 2225, 2326, 2325, 5355, 5356, 5457, 5456
2195, 2225, 2226, 2327, 2326, 5356, 5357, 5458, 5457
2196, 2226, 2227, 2328, 2327, 5357, 5358, 5459, 5458
2197, 2227, 2228, 2329, 2328, 5358, 5359, 5460, 5459
2198, 2228, 2229, 2330, 2329, 5359, 5360, 5461, 5460
2199, 2229, 2230, 2331, 2330, 5360, 5361, 5462, 5461
2200, 2230, 2231, 2332, 2331, 5361, 5362, 5463, 5462
2201, 2231, 2232, 2333, 2332, 5362, 5363, 5464, 5463
2202, 2232, 2233, 2334, 2333, 5363, 5364, 5465, 5464
2203, 2233, 2234, 2335, 2334, 5364, 5365, 5466, 5465
2204, 2234, 2235, 2336, 2335, 5365, 5366, 5467, 5466
2205, 2235, 2236, 2337, 2336, 5366, 5367, 5468, 5467
2206, 2236, 2237, 2338, 2337, 5367, 5368, 5469, 5468
2207, 2237, 2238, 2339, 2338, 5368, 5369, 5470, 5469
2208, 2238, 2239, 2340, 2339, 5369, 5370, 5471, 5470
2209, 2239, 2240, 2341, 2340, 5370, 5371, 5472, 5471
2210, 2240, 2241, 2342, 2341, 5371, 5372, 5473, 5472
2211, 2241, 2242, 2343, 2342, 5372, 5373, 5474, 5473
2212, 2242, 2243, 2344, 2343, 5373, 5374, 5475, 5474
2213, 2243, 2244, 2345, 2344, 5374, 5375, 5476, 5475
2214, 2244, 2245, 2346, 2345, 5375, 5376, 5477, 5476
2215, 2245, 2246, 2347, 2346, 5376, 5377, 5478, 5477
2216, 2246, 2247, 2348, 2347, 5377, 5378, 5479, 5478
2217, 2247, 2248, 2349, 2348, 5378, 5379, 5480, 5479
2218, 2248, 2249, 2350, 2349, 5379, 5380, 5481, 5480
2219, 2249, 2250, 2351, 2350, 5380, 5381, 5482, 5481
2220, 2250, 2251, 2352, 2351, 5381, 5382, 5483, 5482
2221, 2251, 2252, 2353, 2352, 5382, 5383, 5484, 5483
2222, 2252, 2253, 2354, 2353, 5383, 5384, 5485, 5484
2223, 2253, 2254, 2355, 2354, 5384, 5385, 5486, 5485
2224, 2254, 2255, 2356, 2355, 5385, 5386, 5487, 5486
2225, 2255, 2256, 2357, 2356, 5386, 5387, 5488, 5487
2226, 2256, 2257, 2358, 2357, 5387, 5388, 5489, 5488
2227, 2257, 2258, 2359, 2358, 5388, 5389, 5490, 5489
2228, 2258, 2259, 2360, 2359, 5389, 5390, 5491, 5490
2229, 2259, 2260, 2361, 2360, 5390, 5391, 5492, 5491
2230, 2260, 2261, 2362, 2361, 5391, 5392, 5493, 5492
2231, 2261, 2262, 2363, 2362, 5392, 5393, 5494, 5493
2232, 2262, 2263, 2364, 2363, 5393, 5394, 5495, 5494
2233, 2263, 2264, 2365, 2364, 5394, 5395, 5496, 5495
2234, 2264, 2265, 2366, 2365, 5395, 5396, 5497, 5496
2235, 2265, 2266, 2367, 2366, 5396, 5397, 5498, 5497
2236, 2266, 2267, 2368, 2367, 5397, 5398, 5499, 5498
2237, 2267, 2268, 2369, 2368, 5398, 5399, 5500, 5499
2238, 2268, 2269, 2370, 2369, 5399, 5400, 5501, 5500
2239, 2269, 2270, 2371, 2370, 5400, 5401, 5502, 5501
2240, 2270, 2271, 2372, 2371, 5401, 5402, 5503, 5502
2241, 2271, 2272, 2373, 2372, 5402, 5403, 5504, 5503
2242, 2272, 2273, 2374, 2373, 5403, 5404, 5505, 5504
2243, 2273, 2274, 2375, 2374, 5404, 5405, 5506, 5505
2244, 2274, 2275, 2376, 2375, 5405, 5406, 5507, 5506
2245, 2275, 2276, 2377, 2376, 5406, 5407, 5508, 5507
2246, 2276, 2277, 2378, 2377, 5407, 5408, 5509, 5508
2247, 2277, 2278, 2379, 2378, 5408, 5409, 5510, 5509
2248, 2278, 2279, 2380, 2379, 5409, 5410, 5511, 5510
2249, 2279, 2280, 2381, 2380, 5410, 5411, 5512, 5511
2250, 2280, 2281, 2382, 2381, 5411, 5412, 5513, 5512
2251, 2281, 2282, 2383, 2382, 5412, 5413, 5514, 5513
2252, 2282, 2283, 2384, 2383, 5413, 5414, 5515, 5514
2253, 2283, 2284, 2385, 2384, 5414, 5415, 5516, 5515
2254, 2284, 2285, 2386, 2385, 5415, 5416, 5517, 5516
2255, 2285, 2286, 2387, 2386, 5416, 5417, 5518, 5517
2256, 2286, 2287, 2388, 2387, 5417, 5418, 5519, 5518
2257, 2287, 2288, 2389, 2388, 5418, 5419, 5520, 5519
2258, 2288, 2289, 2390, 2389, 5419, 5420, 5521, 5520
2259, 2289, 2290, 2391, 2390, 5420, 5421, 5522, 5521
2260, 2290, 2291, 2392, 2391, 5421, 5422, 5523, 5522
2261, 2291, 2292, 2393, 2392, 5422, 5423, 5524, 5523
2262, 2292, 2293, 2394, 2393, 5423, 5424, 5525, 5524
2263, 2293, 2294, 2395, 2394, 5424, 5425, 5526, 5525
2264, 2294, 2295, 2396, 2395, 5425, 5426, 5527, 5526
2265, 2295, 2296, 2397, 2396, 5426, 5427, 5528, 5527
2266, 2296, 2297, 2398, 2397, 5427, 5428, 5529, 5528
2267, 2297, 2298, 2399, 2398, 5428, 5429, 5530, 5529
2268, 2298, 2299, 2400, 2399, 5429, 5430, 5531, 5530
2269, 2299, 2300, 2401, 2400, 5430, 5431, 5532, 5531
2270, 2300, 2301, 2402, 2401, 5431, 5432, 5533, 5532
2271, 2301, 2302, 2403, 2402, 5432, 5433, 5534, 5533
2272, 2302, 2303, 2404, 2403, 5433, 5434, 5535, 5534
2273, 2303, 2304, 2405, 2404, 5434, 5435, 5536, 5535
2274, 2304, 2305, 2406, 2405, 5435, 5436, 5537, 5536
2275, 2305, 2306, 2407, 2406, 5436, 5437, 5538, 5537
2276, 2306, 2307, 2408, 2407, 5437, 5438, 5539, 5538
2277, 2307, 2308, 2409, 2408, 5438, 5439, 5540, 5539
2278, 2308, 2309, 2410, 2409, 5439, 5440, 5541, 5540
2279, 2309, 2310, 2411, 2410, 5440, 5441, 5542, 5541
2280, 2310, 2311, 2412, 2411, 5441, 5442, 5543, 5542
2281, 2311, 2312, 2413, 2412, 5442, 5443, 5544, 5543
2282, 2312, 2313, 2414, 2413, 5443, 5444, 5545, 5544
2283, 2313, 2314, 2415, 2414, 5444, 5445, 5546, 5545
2284, 2314, 2315, 2416, 2415, 5445, 5446, 5547, 5546
2285, 2315, 2316, 2417, 2416, 5446, 5447, 5548, 5547
2286, 2316, 2317, 2418, 2417, 5447, 5448, 5549, 5548
2287, 2317, 2318, 2419, 2418, 5448, 5449, 5550, 5549
2288, 2318, 2319, 2420, 2419, 5449, 5450, 5551, 5550
2289, 2319, 2320, 2421, 2420, 5450, 5451, 5552, 5551
2290, 2320, 2321, 2422, 2421, 5451, 5452, 5553, 5552
2291, 2321, 2322, 2423, 2422, 5452, 5453, 5554, 5553
2292, 2322, 2323, 2424, 2423, 5453, 5454, 5555, 5554
2293, 2324, 2325, 2426, 2425, 5455, 5456, 5557, 5556
2294, 2325, 2326, 2427, 2426, 5456, 5457, 5558, 5557
2295, 2326, 2327, 2428, 2427, 5457, 5458, 5559, 5558
2296, 2327, 2328, 2429, 2428, 5458, 5459, 5560, 5559
2297, 2328, 2329, 2430, 2429, 5459, 5460, 5561, 5560
2298, 2329, 2330, 2431, 2430, 5460, 5461, 5562, 5561
2299, 2330, 2331, 2432, 2431, 5461, 5462, 5563, 5562
2300, 2331, 2332, 2433, 2432, 5462, 5463, 5564, 5563
2301, 2332, 2333, 2434, 2433, 5463, 5464, 5565, 5564
2302, 2333, 2334, 2435, 2434, 5464, 5465, 5566, 5565
2303, 2334, 2335, 2436, 2435, 5465, 5466, 5567, 5566
2304, 2335, 2336, 2437, 2436, 5466, 5467, 5568, 5567
2305, 2336, 2337, 2438, 2437, 5467, 5468, 5569, 5568
2306, 2337, 2338, 2439, 2438, 5468, 5469, 5570, 5569
2307, 2338, 2339, 2440, 2439, 5469, 5470, 5571, 5570
2308, 2339, 2340, 2441, 2440, 5470, 5471, 5572, 5571
2309, 2340, 2341, 2442, 2441, 5471, 5472, 5573, 5572
2310, 2341, 2342, 2443, 2442, 5472, 5473, 5574, 5573
2311, 2342, 2343, 2444, 2443, 5473, 5474, 5575, 5574
2312, 2343, 2344, 2445, 2444, 5474, 5475, 5576, 5575
2313, 2344, 2345, 2446, 2445, 5475, 5476, 5577, 5576
2314, 2345, 2346, 2447, 2446, 5476, 5477, 5578, 5577
2315, 2346, 2347, 2448, 2447, 5477, 5478, 5579, 5578
2316, 2347, 2348, 2449, 2448, 5478, 5479, 5580, 5579
2317, 2348, 2349, 2450, 2449, 5479, 5480, 5581, 5580
2318, 2349, 2350, 2451, 2450, 5480, 5481, 5582, 5581
2319, 2350, 2351, 2452, 2451, 5481, 5482, 5583, 5582
2320, 2351, 2352, 2453, 2452, 5482, 5483, 5584, 5583
2321, 2352, 2353, 2454, 2453, 5483, 5484, 5585, 5584
2322, 2353, 2354, 2455, 2454, 5484, 5485, 5586, 5585
2323, 2354, 2355, 2456, 2455, 5485, 5486, 5587, 5586
2324, 2355, 2356, 2457, 2456, 5486, 5487, 5588, 5587
2325, 2356, 2357, 2458, 2457, 5487, 5488, 5589, 5588
2326, 2357, 2358, 2459, 2458, 5488, 5489, 5590, 5589
2327, 2358, 2359, 2460, 2459, 5489, 5490, 5591, 5590
2328, 2359, 2360, 2461, 2460, 5490, 5491, 5592, 5591
2329, 2360, 2361, 2462, 2461, 5491, 5492, 5593, 5592
2330, 2361, 2362, 2463, 2462, 5492, 5493, 5594, 5593
2331, 2362, 2363, 2464, 2463, 5493, 5494, 5595, 5594
2332, 2363, 2364, 2465, 2464, 5494, 5495, 5596, 5595
2333, 2364, 2365, 2466, 2465, 5495, 5496, 5597, 5596
2334, 2365, 2366, 2467, 2466, 5496, 5497, 5598, 5597
2335, 2366, 2367, 2468, 2467, 5497, 5498, 5599, 5598
2336, 2367, 2368, 2469, 2468, 5498, 5499, 5600, 5599
2337, 2368, 2369, 2470, 2469, 5499, 5500, 5601, 5600
2338, 2369, 2370, 2471, 2470, 5500, 5501, 5602, 5601
2339, 2370, 2371, 2472, 2471, 5501, 5502, 5603, 5602
2340, 2371, 2372, 2473, 2472, 5502, 5503, 5604, 5603
2341, 2372, 2373, 2474, 2473, 5503, 5504, 5605, 5604
2342, 2373, 2374, 2475, 2474, 5504, 5505, 5606, 5605
2343, 2374, 2375, 2476, 2475, 5505, 5506, 5607, 5606
2344, 2375, 2376, 2477, 2476, 5506, 5507, 5608, 5607
2345, 2376, 2377, 2478, 2477, 5507, 5508, 5609, 5608
2346, 2377, 2378, 2479, 2478, 5508, 5509, 5610, 5609
2347, 2378, 2379, 2480, 2479, 5509, 5510, 5611, 5610
2348, 2379, 2380, 2481, 2480, 5510, 5511, 5612, 5611
2349, 2380, 2381, 2482, 2481, 5511, 5512, 5613, 5612
2350, 2381, 2382, 2483, 2482, 5512, 5513, 5614, 5613
2351, 2382, 2383, 2484, 2483, 5513, 5514, 5615, 5614
2352, 2383, 2384, 2485, 2484, 5514, 5515, 5616, 5615
2353, 2384, 2385, 2486, 2485, 5515, 5516, 5617, 5616
2354, 2385, 2386, 2487, 2486, 5516, 5517, 5618, 5617
2355, 2386, 2387, 2488, 2487, 5517, 5518, 5619, 5618
2356, 2387, 2388, 2489, 2488, 5518, 5519, 5620, 5619
2357, 2388, 2389, 2490, 2489, 5519, 5520, 5621, 5620
2358, 2389, 2390, 2491, 2490, 5520, 5521, 5622, 5621
2359, 2390, 2391, 2492, 2491, 5521, 5522, 5623, 5622
2360, 2391, 2392, 2493, 2492, 5522, 5523, 5624, 5623
2361, 2392, 2393, 2494, 2493, 5523, 5524, 5625, 5624
2362, 2393, 2394, 2495, 2494, 5524, 5525, 5626, 5625
2363, 2394, 2395, 2496, 2495, 5525, 5526, 5627, 5626
2364, 2395, 2396, 2497, 2496, 5526, 5527, 5628, 5627
2365, 2396, 2397, 2498, 2497, 5527, 5528, 5629, 5628
2366, 2397, 2398, 2499, 2498, 5528, 5529, 5630, 5629
2367, 2398, 2399, 2500, 2499, 5529, 5530, 5631, 5630
2368, 2399, 2400, 2501, 2500, 5530, 5531, 5632, 5631
2369, 2400, 2401, 2502, 2501, 5531, 5532, 5633, 5632
2370, 2401, 2402, 2503, 2502, 5532, 5533, 5634, 5633
2371, 2402, 2403, 2504, 2503, 5533, 5534, 5635, 5634
2372, 2403, 2404, 2505, 2504, 5534, 5535, 5636, 5635
2373, 2404, 2405, 2506, 2505, 5535, 5536, 5637, 5636
2374, 2405, 2406, 2507, 2506, 5536, 5537, 5638, 5637
2375, 2406, 2407, 2508, 2507, 5537, 5538, 5639, 5638
2376, 2407, 2408, 2509, 2508, 5538, 5539, 5640, 5639
2377, 2408, 2409, 2510, 2509, 5539, 5540, 5641, 5640
2378, 2409, 2410, 2511, 2510, 5540, 5541, 5642, 5641
2379, 2410, 2411, 2512, 2511, 5541, 5542, 5643, 5642
2380, 2411, 2412, 2513, 2512, 5542, 5543, 5644, 5643
2381, 2412, 2413, 2514, 2513, 5543, 5544, 5645, 5644
2382, 2413, 2414, 2515, 2514, 5544, 5545, 5646, 5645
2383, 2414, 2415, 2516, 2515, 5545, 5546, 5647, 5646
2384, 2415, 2416, 2517, 2516, 5546, 5547, 5648, 5647
2385, 2416, 2417, 2518, 2517, 5547, 5548, 5649, 5648
2386, 2417, 2418, 2519, 2518, 5548, 5549, 5650, 5649
2387, 2418, 2419, 2520, 2519, 5549, 5550, 5651, 5650
2388, 2419, 2420, 2521, 2520, 5550, 5551, 5652, 5651
2389, 2420, 2421, 2522, 2521, 5551, 5552, 5653, 5652
2390, 2421, 2422, 2523, 2522, 5552, 5553, 5654, 5653
2391, 2422, 2423, 2524, 2523, 5553, 5554, 5655, 5654
2392, 2423, 2424, 2525, 2524, 5554, 5555, 5656, 5655
2393, 2425, 2426, 2527, 2526, 5556, 5557, 5658, 5657
2394, 2426, 2427, 2528, 2527, 5557, 5558, 5659, 5658
2395, 2427, 2428, 2529, 2528, 5558, 5559, 5660, 5659
2396, 2428, 2429, 2530, 2529, 5559, 5560, 5661, 5660
2397, 2429, 2430, 2531, 2530, 5560, 5561, 5662, 5661
2398, 2430, 2431, 2532, 2531, 5561, 5562, 5663, 5662
2399, 2431, 2432, 2533, 2532, 5562, 5563, 5664, 5663
2400, 2432, 2433, 2534, 2533, 5563, 5564, 5665, 5664
2401, 2433, 2434, 2535, 2534, 5564, 5565, 5666, 5665
2402, 2434, 2435, 2536, 2535, 5565, 5566, 5667, 5666
2403, 2435, 2436, 2537, 2536, 5566, 5567, 5668, 5667
2404, 2436, 2437, 2538, 2537, 5567, 5568, 5669, 5668
2405, 2437, 2438, 2539, 2538, 5568, 5569, 5670, 5669
2406, 2438, 2439, 2540, 2539, 5569, 5570, 5671, 5670
2407, 2439, 2440, 2541, 2540, 5570, 5571, 5672, 5671
2408, 2440, 2441, 2542, 2541, 5571, 5572, 5673, 5672
2409, 2441, 2442, 2543, 2542, 5572, 5573, 5674, 5673
2410, 2442, 2443, 2544, 2543, 5573, 5574, 5675, 5674
2411, 2443, 2444, 2545, 2544, 5574, 5575, 5676, 5675
2412, 2444, 2445, 2546, 2545, 5575, 5576, 5677, 5676
2413, 2445, 2446, 2547, 2546, 5576, 5577, 5678, 5677
2414, 2446, 2447, 2548, 2547, 5577, 5578, 5679, 5678
2415, 2447, 2448, 2549, 2548, 5578, 5579, 5680, 5679
2416, 2448, 2449, 2550, 2549, 5579, 5580, 5681, 5680
2417, 2449, 2450, 2551, 2550, 5580, 5581, 5682, 5681
2418, 2450, 2451, 2552, 2551, 5581, 5582, 5683, 5682
2419, 2451, 2452, 2553, 2552, 5582, 5583, 5684, 5683
2420, 2452, 2453, 2554, 2553, 5583, 5584, 5685, 5684
2421, 2453, 2454, 2555, 2554, 5584, 5585, 5686, 5685
2422, 2454, 2455, 2556, 2555, 5585, 5586, 5687, 5686
2423, 2455, 2456, 2557, 2556, 5586, 5587, 5688, 5687
2424, 2456, 2457, 2558, 2557, 5587, 5588, 5689, 5688
2425, 2457, 2458, 2559, 2558, 5588, 5589, 5690, 5689
2426, 2458, 2459, 2560, 2559, 5589, 5590, 5691, 5690
2427, 2459, 2460, 2561, 2560, 5590, 5591, 5692, 5691
2428, 2460, 2461, 2562, 2561, 5591, 5592, 5693, 5692
2429, 2461, 2462, 2563, 2562, 5592, 5593, 5694, 5693
2430, 2462, 2463, 2564, 2563, 5593, 5594, 5695, 5694
2431, 2463, 2464, 2565, 2564, 5594, 5595, 5696, 5695
2432, 2464, 2465, 2566, 2565, 5595, 5596, 5697, 5696
2433, 2465, 2466, 2567, 2566, 5596, 5597, 5698, 5697
2434, 2466, 2467, 2568, 2567, 5597, 5598, 5699, 5698
2435, 2467, 2468, 2569, 2568, 5598, 5599, 5700, 5699
2436, 2468, 2469, 2570, 2569, 5599, 5600, 5701, 5700
2437, 2469, 2470, 2571, 2570, 5600, 5601, 5702, 5701
2438, 2470, 2471, 2572, 2571, 5601, 5602, 5703, 5702
2439, 2471, 2472, 2573, 2572, 5602, 5603, 5704, 5703
2440, 2472, 2473, 2574, 2573, 5603, 5604, 5705, 5704
2441, 2473, 2474, 2575, 2574, 5604, 5605, 5706, 5705
2442, 2474, 2475, 2576, 2575, 5605, 5606, 5707, 5706
2443, 2475, 2476, 2577, 2576, 5606, 5607, 5708, 5707
2444, 2476, 2477, 2578, 2577, 5607, 5608, 5709, 5708
2445, 2477, 2478, 2579, 2578, 5608, 5609, 5710, 5709
2446, 2478, 2479, 2580, 2579, 5609, 5610, 5711, 5710
2447, 2479, 2480, 2581, 2580, 5610, 5611, 5712, 5711
2448, 2480, 2481, 2582, 2581, 5611, 5612, 5713, 5712
2449, 2481, 2482, 2583, 2582, 5612, 5613, 5714, 5713
2450, 2482, 2483, 2584, 2583, 5613, 5614, 5715, 5714
2451, 2483, 2484, 2585, 2584, 5614, 5615, 5716, 5715
2452, 2484, 2485, 2586, 2585, 5615, 5616, 5717, 5716
2453, 2485, 2486, 2587, 2586, 5616, 5617, 5718, 5717
2454, 2486, 2487, 2588, 2587, 5617, 5618, 5719, 5718
2455, 2487, 2488, 2589, 2588, 5618, 5619, 5720, 5719
2456, 2488, 2489, 2590, 2589, 5619, 5620, 5721, 5720
2457, 2489, 2490, 2591, 2590, 5620, 5621, 5722, 5721
2458, 2490, 2491, 2592, 2591, 5621, 5622, 5723, 5722
2459, 2491, 2492, 2593, 2592, 5622, 5623, 5724, 5723
2460, 2492, 2493, 2594, 2593, 5623, 5624, 5725, 5724
2461, 2493, 2494, 2595, 2594, 5624, 5625, 5726, 5725
2462, 2494, 2495, 2596, 2595, 5625, 5626, 5727, 5726
2463, 2495, 2496, 2597, 2596, 5626, 5627, 5728, 5727
2464, 2496, 2497, 2598, 2597, 5627, 5628, 5729, 5728
2465, 2497, 2498, 2599, 2598, 5628, 5629, 5730, 5729
2466, 2498, 2499, 2600, 2599, 5629, 5630, 5731, 5730
2467, 2499, 2500, 2601, 2600, 5630, 5631, 5732, 5731
2468, 2500, 2501, 2602, 2601, 5631, 5632, 5733, 5732
2469, 2501, 2502, 2603, 2602, 5632, 5633, 5734, 5733
2470, 2502, 2503, 2604, 2603, 5633, 5634, 5735, 5734
2471, 2503, 2504, 2605, 2604, 5634, 5635, 5736, 5735
2472, 2504, 2505, 2606, 2605, 5635, 5636, 5737, 5736
2473, 2505, 2506, 2607, 2606, 5636, 5637, 5738, 5737
2474, 2506, 2507, 2608, 2607, 5637, 5638, 5739, 5738
2475, 2507, 2508, 2609, 2608, 5638, 5639, 5740, 5739
2476, 2508, 2509, 2610, 2609, 5639, 5640, 5741, 5740
2477, 2509, 2510, 2611, 2610, 5640, 5641, 5742, 5741
2478, 2510, 2511, 2612, 2611, 5641, 5642, 5743, 5742
2479, 2511, 2512, 2613, 2612, 5642, 5643, 5744, 5743
2480, 2512, 2513, 2614, 2613, 5643, 5644, 5745, 5744
2481, 2513, 2514, 2615, 2614, 5644, 5645, 5746, 5745
2482, 2514, 2515, 2616, 2615, 5645, 5646, 5747, 5746
2483, 2515, 2516, 2617, 2616, 5646, 5647, 5748, 5747
2484, 2516, 2517, 2618, 2617, 5647, 5648, 5749, 5748
2485, 2517, 2518, 2619, 2618, 5648, 5649, 5750, 5749
2486, 2518, 2519, 2620, 2619, 5649, 5650, 5751, 5750
2487, 2519, 2520, 2621, 2620, 5650, 5651, 5752, 5751
2488, 2520, 2521, 2622, 2621, 5651, 5652, 5753, 5752
2489, 2521, 2522, 2623, 2622, 5652, 5653, 5754, 5753
2490, 2522, 2523, 2624, 2623, 5653, 5654, 5755, 5754
2491, 2523, 2524, 2625, 2624, 5654, 5655, 5756, 5755
2492, 2524, 2525, 2626, 2625, 5655, 5656, 5757, 5756
2493, 2526, 2527, 2628, 2627, 5657, 5658, 5759, 5758
2494, 2527, 2528, 2629, 2628, 5658, 5659, 5760, 5759
2495, 2528, 2529, 2630, 2629, 5659, 5660, 5761, 5760
2496, 2529, 2530, 2631, 2630, 5660, 5661, 5762, 5761
2497, 2530, 2531, 2632, 2631, 5661, 5662, 5763, 5762
2498, 2531, 2532, 2633, 2632, 5662, 5663, 5764, 5763
2499, 2532, 2533, 2634, 2633, 5663, 5664, 5765, 5764
2500, 2533, 2534, 2635, 2634, 5664, 5665, 5766, 5765
2501, 2534, 2535, 2636, 2635, 5665, 5666, 5767, 5766
2502, 2535, 2536, 2637, 2636, 5666, 5667, 5768, 5767
2503, 2536, 2537, 2638, 2637, 5667, 5668, 5769, 5768
2504, 2537, 2538, 2639, 2638, 5668, 5669, 5770, 5769
2505, 2538, 2539, 2640, 2639, 5669, 5670, 5771, 5770
2506, 2539, 2540, 2641, 2640, 5670, 5671, 5772, 5771
2507, 2540, 2541, 2642, 2641, 5671, 5672, 5773, 5772
2508, 2541, 2542, 2643, 2642, 5672, 5673, 5774, 5773
2509, 2542, 2543, 2644, 2643, 5673, 5674, 5775, 5774
2510, 2543, 2544, 2645, 2644, 5674, 5675, 5776, 5775
2511, 2544, 2545, 2646, 2645, 5675, 5676, 5777, 5776
2512, 2545, 2546, 2647, 2646, 5676, 5677, 5778, 5777
2513, 2546, 2547, 2648, 2647, 5677, 5678, 5779, 5778
2514, 2547, 2548, 2649, 2648, 5678, 5679, 5780, 5779
2515, 2548, 2549, 2650, 2649, 5679, 5680, 5781, 5780
2516, 2549, 2550, 2651, 2650, 5680, 5681, 5782, 5781
2517, 2550, 2551, 2652, 2651, 5681, 5682, 5783, 5782
2518, 2551, 2552, 2653, 2652, 5682, 5683, 5784, 5783
2519, 2552, 2553, 2654, 2653, 5683, 5684, 5785, 5784
2520, 2553, 2554, 2655, 2654, 5684, 5685, 5786, 5785
2521, 2554, 2555, 2656, 2655, 5685, 5686, 5787, 5786
2522, 2555, 2556, 2657, 2656, 5686, 5687, 5788, 5787
2523, 2556, 2557, 2658, 2657, 5687, 5688, 5789, 5788
2524, 2557, 2558, 2659, 2658, 5688, 5689, 5790, 5789
2525, 2558, 2559, 2660, 2659, 5689, 5690, 5791, 5790
2526, 2559, 2560, 2661, 2660, 5690, 5691, 5792, 5791
2527, 2560, 2561, 2662, 2661, 5691, 5692, 5793, 5792
2528, 2561, 2562, 2663, 2662, 5692, 5693, 5794, 5793
2529, 2562, 2563, 2664, 2663, 5693, 5694, 5795, 5794
2530, 2563, 2564, 2665, 2664, 5694, 5695, 5796, 5795
2531, 2564, 2565, 2666, 2665, 5695, 5696, 5797, 5796
2532, 2565, 2566, 2667, 2666, 5696, 5697, 5798, 5797
2533, 2566, 2567, 2668, 2667, 5697, 5698, 5799, 5798
2534, 2567, 2568, 2669, 2668, 5698, 5699, 5800, 5799
2535, 2568, 2569, 2670, 2669, 5699, 5700, 5801, 5800
2536, 2569, 2570, 2671, 2670, 5700, 5701, 5802, 5801
2537, 2570, 2571, 2672, 2671, 5701, 5702, 5803, 5802
2538, 2571, 2572, 2673, 2672, 5702, 5703, 5804, 5803
2539, 2572, 2573, 2674, 2673, 5703, 5704, 5805, 5804
2540, 2573, 2574, 2675, 2674, 5704, 5705, 5806, 5805
2541, 2574, 2575, 2676, 2675, 5705, 5706, 5807, 5806
2542, 2575, 2576, 2677, 2676, 5706, 5707, 5808, 5807
2543, 2576, 2577, 2678, 2677, 5707, 5708, 5809, 5808
2544, 2577, 2578, 2679, 2678, 5708, 5709, 5810, 5809
2545, 2578, 2579, 2680, 2679, 5709, 5710, 5811, 5810
2546, 2579, 2580, 2681, 2680, 5710, 5711, 5812, 5811
2547, 2580, 2581, 2682, 2681, 5711, 5712, 5813, 5812
2548, 2581, 2582, 2683, 2682, 5712, 5713, 5814, 5813
2549, 2582, 2583, 2684, 2683, 5713, 5714, 5815, 5814
2550, 2583, 2584, 2685, 2684, 5714, 5715, 5816, 5815
2551, 2584, 2585, 2686, 2685, 5715, 5716, 5817, 5816
2552, 2585, 2586, 2687, 2686, 5716, 5717, 5818, 5817
2553, 2586, 2587, 2688, 2687, 5717, 5718, 5819, 5818
2554, 2587, 2588, 2689, 2688, 5718, 5719, 5820, 5819
2555, 2588, 2589, 2690, 2689, 5719, 5720, 5821, 5820
2556, 2589, 2590, 2691, 2690, 5720, 5721, 5822, 5821
2557, 2590, 2591, 2692, 2691, 5721, 5722, 5823, 5822
2558, 2591, 2592, 2693, 2692, 5722, 5723, 5824, 5823
2559, 2592, 2593, 2694, 2693, 5723, 5724, 5825, 5824
2560, 2593, 2594, 2695, 2694, 5724, 5725, 5826, 5825
2561, 2594, 2595, 2696, 2695, 5725, 5726, 5827, 5826
2562, 2595, 2596, 2697, 2696, 5726, 5727, 5828, 5827
2563, 2596, 2597, 2698, 2697, 5727, 5728, 5829, 5828
2564, 2597, 2598, 2699, 2698, 5728, 5729, 5830, 5829
2565, 2598, 2599, 2700, 2699, 5729, 5730, 5831, 5830
2566, 2599, 2600, 2701, 2700, 5730, 5731, 5832, 5831
2567, 2600, 2601, 2702, 2701, 5731, 5732, 5833, 5832
2568, 2601, 2602, 2703, 2702, 5732, 5733, 5834, 5833
2569, 2602, 2603, 2704, 2703, 5733, 5734, 5835, 5834
2570, 2603, 2604, 2705, 2704, 5734, 5735, 5836, 5835
2571, 2604, 2605, 2706, 2705, 5735, 5736, 5837, 5836
2572, 2605, 2606, 2707, 2706, 5736, 5737, 5838, 5837
2573, 2606, 2607, 2708, 2707, 5737, 5738, 5839, 5838
2574, 2607, 2608, 2709, 2708, 5738, 5739, 5840, 5839
2575, 2608, 2609, 2710, 2709, 5739, 5740, 5841, 5840
2576, 2609, 2610, 2711, 2710, 5740, 5741, 5842, 5841
2577, 2610, 2611, 2712, 2711, 5741, 5742, 5843, 5842
2578, 2611, 2612, 2713, 2712, 5742, 5743, 5844, 5843
2579, 2612, 2613, 2714, 2713, 5743, 5744, 5845, 5844
2580, 2613, 2614, 2715, 2714, 5744, 5745, 5846, 5845
2581, 2614, 2615, 2716, 2715, 5745, 5746, 5847, 5846
2582, 2615, 2616, 2717, 2716, 5746, 5747, 5848, 5847
2583, 2616, 2617, 2718, 2717, 5747, 5748, 5849, 5848
2584, 2617, 2618, 2719, 2718, 5748, 5749, 5850, 5849
2585, 2618, 2619, 2720, 2719, 5749, 5750, 5851, 5850
2586, 2619, 2620, 2721, 2720, 5750, 5751, 5852, 5851
2587, 2620, 2621, 2722, 2721, 5751, 5752, 5853, 5852
2588, 2621, 2622, 2723, 2722, 5752, 5753, 5854, 5853
2589, 2622, 2623, 2724, 2723, 5753, 5754, 5855, 5854
2590, 2623, 2624, 2725, 2724, 5754, 5755, 5856, 5855
2591, 2624, 2625, 2726, 2725, 5755, 5756, 5857, 5856
2592, 2625, 2626, 2727, 2726, 5756, 5757, 5858, 5857
2593, 2627, 2628, 2729, 2728, 5758, 5759, 5860, 5859
2594, 2628, 2629, 2730, 2729, 5759, 5760, 5861, 5860
2595, 2629, 2630, 2731, 2730, 5760, 5761, 5862, 5861
2596, 2630, 2631, 2732, 2731, 5761, 5762, 5863, 5862
2597, 2631, 2632, 2733, 2732, 5762, 5763, 5864, 5863
2598, 2632, 2633, 2734, 2733, 5763, 5764, 5865, 5864
2599, 2633, 2634, 2735, 2734, 5764, 5765, 5866, 5865
2600, 2634, 2635, 2736, 2735, 5765, 5766, 5867, 5866
2601, 2635, 2636, 2737, 2736, 5766, 5767, 5868, 5867
2602, 2636, 2637, 2738, 2737, 5767, 5768, 5869, 5868
2603, 2637, 2638, 2739, 2738, 5768, 5769, 5870, 5869
2604, 2638, 2639, 2740, 2739, 5769, 5770, 5871, 5870
2605, 2639, 2640, 2741, 2740, 5770, 5771, 5872, 5871
2606, 2640, 2641, 2742, 2741, 5771, 5772, 5873, 5872
2607, 2641, 2642, 2743, 2742, 5772, 5773, 5874, 5873
2608, 2642, 2643, 2744, 2743, 5773, 5774, 5875, 5874
2609, 2643, 2644, 2745, 2744, 5774, 5775, 5876, 5875
2610, 2644, 2645, 2746, 2745, 5775, 5776, 5877, 5876
2611, 2645, 2646, 2747, 2746, 5776, 5777, 5878, 5877
2612, 2646, 2647, 2748, 2747, 5777, 5778, 5879, 5878
2613, 2647, 2648, 2749, 2748, 5778, 5779, 5880, 5879
2614, 2648, 2649, 2750, 2749, 5779, 5780, 5881, 5880
2615, 2649, 2650, 2751, 2750, 5780, 5781, 5882, 5881
2616, 2650, 2651, 2752, 2751, 5781, 5782, 5883, 5882
2617, 2651, 2652, 2753, 2752, 5782, 5783, 5884, 5883
2618, 2652, 2653, 2754, 2753, 5783, 5784, 5885, 5884
2619, 2653, 2654, 2755, 2754, 5784, 5785, 5886, 5885
2620, 2654, 2655, 2756, 2755, 5785, 5786, 5887, 5886
2621, 2655, 2656, 2757, 2756, 5786, 5787, 5888, 5887
2622, 2656, 2657, 2758, 2757, 5787, 5788, 5889, 5888
2623, 2657, 2658, 2759, 2758, 5788, 5789, 5890, 5889
2624, 2658, 2659, 2760, 2759, 5789, 5790, 5891, 5890
2625, 2659, 2660, 2761, 2760, 5790, 5791, 5892, 5891
2626, 2660, 2661, 2762, 2761, 5791, 5792, 5893, 5892
2627, 2661, 2662, 2763, 2762, 5792, 5793, 5894, 5893
2628, 2662, 2663, 2764, 2763, 5793, 5794, 5895, 5894
2629, 2663, 2664, 2765, 2764, 5794, 5795, 5896, 5895
2630, 2664, 2665, 2766, 2765, 5795, 5796, 5897, 5896
2631, 2665, 2666, 2767, 2766, 5796, 5797, 5898, 5897
2632, 2666, 2667, 2768, 2767, 5797, 5798, 5899, 5898
2633, 2667, 2668, 2769, 2768, 5798, 5799, 5900, 5899
2634, 2668, 2669, 2770, 2769, 5799, 5800, 5901, 5900
2635, 2669, 2670, 2771, 2770, 5800, 5801, 5902, 5901
2636, 2670, 2671, 2772, 2771, 5801, 5802, 5903, 5902
2637, 2671, 2672, 2773, 2772, 5802, 5803, 5904, 5903
2638, 2672, 2673, 2774, 2773, 5803, 5804, 5905, 5904
2639, 2673, 2674, 2775, 2774, 5804, 5805, 5906, 5905
2640, 2674, 2675, 2776, 2775, 5805, 5806, 5907, 5906
2641, 2675, 2676, 2777, 2776, 5806, 5807, 5908, 5907
2642, 2676, 2677, 2778, 2777, 5807, 5808, 5909, 5908
2643, 2677, 2678, 2779, 2778, 5808, 5809, 5910, 5909
2644, 2678, 2679, 2780, 2779, 5809, 5810, 5911, 5910
2645, 2679, 2680, 2781, 2780, 5810, 5811, 5912, 5911
2646, 2680, 2681, 2782, 2781, 5811, 5812, 5913, 5912
2647, 2681, 2682, 2783, 2782, 5812, 5813, 5914, 5913
2648, 2682, 2683, 2784, 2783, 5813, 5814, 5915, 5914
2649, 2683, 2684, 2785, 2784, 5814, 5815, 5916, 5915
2650, 2684, 2685, 2786, 2785, 5815, 5816, 5917, 5916
2651, 2685, 2686, 2787, 2786, 5816, 5817, 5918, 5917
2652, 2686, 2687, 2788, 2787, 5817, 5818, 5919, 5918
2653, 2687, 2688, 2789, 2788, 5818, 5819, 5920, 5919
2654, 2688, 2689, 2790, 2789, 5819, 5820, 5921, 5920
2655, 2689, 2690, 2791, 2790, 5820, 5821, 5922, 5921
2656, 2690, 2691, 2792, 2791, 5821, 5822, 5923, 5922
2657, 2691, 2692, 2793, 2792, 5822, 5823, 5924, 5923
2658, 2692, 2693, 2794, 2793, 5823, 5824, 5925, 5924
2659, 2693, 2694, 2795, 2794, 5824, 5825, 5926, 5925
2660, 2694, 2695, 2796, 2795, 5825, 5826, 5927, 5926
2661, 2695, 2696, 2797, 2796, 5826, 5827, 5928, 5927
2662, 2696, 2697, 2798, 2797, 5827, 5828, 5929, 5928
2663, 2697, 2698, 2799, 2798, 5828, 5829, 5930, 5929
2664, 2698, 2699, 2800, 2799, 5829, 5830, 5931, 5930
2665, 2699, 2700, 2801, 2800, 5830, 5831, 5932, 5931
2666, 2700, 2701, 2802, 2801, 5831, 5832, 5933, 5932
2667, 2701, 2702, 2803, 2802, 5832, 5833, 5934, 5933
2668, 2702, 2703, 2804, 2803, 5833, 5834, 5935, 5934
2669, 2703, 2704, 2805, 2804, 5834, 5835, 5936, 5935
2670, 2704, 2705, 2806, 2805, 5835, 5836, 5937, 5936
2671, 2705, 2706, 2807, 2806, 5836, 5837, 5938, 5937
2672, 2706, 2707, 2808, 2807, 5837, 5838, 5939, 5938
2673, 2707, 2708, 2809, 2808, 5838, 5839, 5940, 5939
2674, 2708, 2709, 2810, 2809, 5839, 5840, 5941, 5940
2675, 2709, 2710, 2811, 2810, 5840, 5841, 5942, 5941
2676, 2710, 2711, 2812, 2811, 5841, 5842, 5943, 5942
2677, 2711, 2712, 2813, 2812, 5842, 5843, 5944, 5943
2678, 2712, 2713, 2814, 2813, 5843, 5844, 5945, 5944
2679, 2713, 2714, 2815, 2814, 5844, 5845, 5946, 5945
2680, 2714, 2715, 2816, 2815, 5845, 5846, 5947, 5946
2681, 2715, 2716, 2817, 2816, 5846, 5847, 5948, 5947
2682, 2716, 2717, 2818, 2817, 5847, 5848, 5949, 5948
2683, 2717, 2718, 2819, 2818, 5848, 5849, 5950, 5949
2684, 2718, 2719, 2820, 2819, 5849, 5850, 5951, 5950
2685, 2719, 2720, 2821, 2820, 5850, 5851, 5952, 5951
2686, 2720, 2721, 2822, 2821, 5851, 5852, 5953, 5952
2687, 2721, 2722, 2823, 2822, 5852, 5853, 5954, 5953
2688, 2722, 2723, 2824, 2823, 5853, 5854, 5955, 5954
2689, 2723, 2724, 2825, 2824, 5854, 5855, 5956, 5955
2690, 2724, 2725, 2826, 2825, 5855, 5856, 5957, 5956
2691, 2725, 2726, 2827, 2826, 5856, 5857, 5958, 5957
2692, 2726, 2727, 2828, 2827, 5857, 5858, 5959, 5958
2693, 2728, 2729, 2830, 2829, 5859, 5860, 5961, 5960
2694, 2729, 2730, 2831, 2830, 5860, 5861, 5962, 5961
2695, 2730, 2731, 2832, 2831, 5861, 5862, 5963, 5962
2696, 2731, 2732, 2833, 2832, 5862, 5863, 5964, 5963
2697, 2732, 2733, 2834, 2833, 5863, 5864, 5965, 5964
2698, 2733, 2734, 2835, 2834, 5864, 5865, 5966, 5965
2699, 2734, 2735, 2836, 2835, 5865, 5866, 5967, 5966
2700, 2735, 2736, 2837, 2836, 5866, 5867, 5968, 5967
2701, 2736, 2737, 2838, 2837, 5867, 5868, 5969, 5968
2702, 2737, 2738, 2839, 2838, 5868, 5869, 5970, 5969
2703, 2738, 2739, 2840, 2839, 5869, 5870, 5971, 5970
2704, 2739, 2740, 2841, 2840, 5870, 5871, 5972, 5971
2705, 2740, 2741, 2842, 2841, 5871, 5872, 5973, 5972
2706, 2741, 2742, 2843, 2842, 5872, 5873, 5974, 5973
2707, 2742, 2743, 2844, 2843, 5873, 5874, 5975, 5974
2708, 2743, 2744, 2845, 2844, 5874, 5875, 5976, 5975
2709, 2744, 2745, 2846, 2845, 5875, 5876, 5977, 5976
2710, 2745, 2746, 2847, 2846, 5876, 5877, 5978, 5977
2711, 2746, 2747, 2848, 2847, 5877, 5878, 5979, 5978
2712, 2747, 2748, 2849, 2848, 5878, 5879, 5980, 5979
2713, 2748, 2749, 2850, 2849, 5879, 5880, 5981, 5980
2714, 2749, 2750, 2851, 2850, 5880, 5881, 5982, 5981
2715, 2750, 2751, 2852, 2851, 5881, 5882, 5983, 5982
2716, 2751, 2752, 2853, 2852, 5882, 5883, 5984, 5983
2717, 2752, 2753, 2854, 2853, 5883, 5884, 5985, 5984
2718, 2753, 2754, 2855, 2854, 5884, 5885, 5986, 5985
2719, 2754, 2755, 2856, 2855, 5885, 5886, 5987, 5986
2720, 2755, 2756, 2857, 2856, 5886, 5887, 5988, 5987
2721, 2756, 2757, 2858, 2857, 5887, 5888, 5989, 5988
2722, 2757, 2758, 2859, 2858, 5888, 5889, 5990, 5989
2723, 2758, 2759, 2860, 2859, 5889, 5890, 5991, 5990
2724, 2759, 2760, 2861, 2860, 5890, 5891, 5992, 5991
2725, 2760, 2761, 2862, 2861, 5891, 5892, 5993, 5992
2726, 2761, 2762, 2863, 2862, 5892, 5893, 5994, 5993
2727, 2762, 2763, 2864, 2863, 5893, 5894, 5995, 5994
2728, 2763, 2764, 2865, 2864, 5894, 5895, 5996, 5995
2729, 2764, 2765, 2866, 2865, 5895, 5896, 5997, 5996
2730, 2765, 2766, 2867, 2866, 5896, 5897, 5998, 5997
2731, 2766, 2767, 2868, 2867, 5897, 5898, 5999, 5998
2732, 2767, 2768, 2869, 2868, 5898, 5899, 6000, 5999
2733, 2768, 2769, 2870, 2869, 5899, 5900, 6001, 6000
2734, 2769, 2770, 2871, 2870, 5900, 5901, 6002, 6001
2735, 2770, 2771, 2872, 2871, 5901, 5902, 6003, 6002
2736, 2771, 2772, 2873, 2872, 5902, 5903, 6004, 6003
2737, 2772, 2773, 2874, 2873, 5903, 5904, 6005, 6004
2738, 2773, 2774, 2875, 2874, 5904, 5905, 6006, 6005
2739, 2774, 2775, 2876, 2875, 5905, 5906, 6007, 6006
2740, 2775, 2776, 2877, 2876, 5906, 5907, 6008, 6007
2741, 2776, 2777, 2878, 2877, 5907, 5908, 6009, 6008
2742, 2777, 2778, 2879, 2878, 5908, 5909, 6010, 6009
2743, 2778, 2779, 2880, 2879, 5909, 5910, 6011, 6010
2744, 2779, 2780, 2881, 2880, 5910, 5911, 6012, 6011
2745, 2780, 2781, 2882, 2881, 5911, 5912, 6013, 6012
2746, 2781, 2782, 2883, 2882, 5912, 5913, 6014, 6013
2747, 2782, 2783, 2884, 2883, 5913, 5914, 6015, 6014
2748, 2783, 2784, 2885, 2884, 5914, 5915, 6016, 6015
2749, 2784, 2785, 2886, 2885, 5915, 5916, 6017, 6016
2750, 2785, 2786, 2887, 2886, 5916, 5917, 6018, 6017
2751, 2786, 2787, 2888, 2887, 5917, 5918, 6019, 6018
2752, 2787, 2788, 2889, 2888, 5918, 5919, 6020, 6019
2753, 2788, 2789, 2890, 2889, 5919, 5920, 6021, 6020
2754, 2789, 2790, 2891, 2890, 5920, 5921, 6022, 6021
2755, 2790, 2791, 2892, 2891, 5921, 5922, 6023, 6022
2756, 2791, 2792, 2893, 2892, 5922, 5923, 6024, 6023
2757, 2792, 2793, 2894, 2893, 5923, 5924, 6025, 6024
2758, 2793, 2794, 2895, 2894, 5924, 5925, 6026, 6025
2759, 2794, 2795, 2896, 2895, 5925, 5926, 6027, 6026
2760, 2795, 2796, 2897, 2896, 5926, 5927, 6028, 6027
2761, 2796, 2797, 2898, 2897, 5927, 5928, 6029, 6028
2762, 2797, 2798, 2899, 2898, 5928, 5929, 6030, 6029
2763, 2798, 2799, 2900, 2899, 5929, 5930, 6031, 6030
2764, 2799, 2800, 2901, 2900, 5930, 5931, 6032, 6031
2765, 2800, 2801, 2902, 2901, 5931, 5932, 6033, 6032
2766, 2801, 2802, 2903, 2902, 5932, 5933, 6034, 6033
2767, 2802, 2803, 2904, 2903, 5933, 5934, 6035, 6034
2768, 2803, 2804, 2905, 2904, 5934, 5935, 6036, 6035
2769, 2804, 2805, 2906, 2905, 5935, 5936, 6037, 6036
2770, 2805, 2806, 2907, 2906, 5936, 5937, 6038, 6037
2771, 2806, 2807, 2908, 2907, 5937, 5938, 6039, 6038
2772, 2807, 2808, 2909, 2908, 5938, 5939, 6040, 6039
2773, 2808, 2809, 2910, 2909, 5939, 5940, 6041, 6040
2774, 2809, 2810, 2911, 2910, 5940, 5941, 6042, 6041
2775, 2810, 2811, 2912, 2911, 5941, 5942, 6043, 6042
2776, 2811, 2812, 2913, 2912, 5942, 5943, 6044, 6043
2777, 2812, 2813, 2914, 2913, 5943, 5944, 6045, 6044
2778, 2813, 2814, 2915, 2914, 5944, 5945, 6046, 6045
2779, 2814, 2815, 2916, 2915, 5945, 5946, 6047, 6046
2780, 2815, 2816, 2917, 2916, 5946, 5947, 6048, 6047
2781, 2816, 2817, 2918, 2917, 5947, 5948, 6049, 6048
2782, 2817, 2818, 2919, 2918, 5948, 5949, 6050, 6049
2783, 2818, 2819, 2920, 2919, 5949, 5950, 6051, 6050
2784, 2819, 2820, 2921, 2920, 5950, 5951, 6052, 6051
2785, 2820, 2821, 2922, 2921, 5951, 5952, 6053, 6052
2786, 2821, 2822, 2923, 2922, 5952, 5953, 6054, 6053
2787, 2822, 2823, 2924, 2923, 5953, 5954, 6055, 6054
2788, 2823, 2824, 2925, 2924, 5954, 5955, 6056, 6055
2789, 2824, 2825, 2926, 2925, 5955, 5956, 6057, 6056
2790, 2825, 2826, 2927, 2926, 5956, 5957, 6058, 6057
2791, 2826, 2827, 2928, 2927, 5957, 5958, 6059, 6058
2792, 2827, 2828, 2929, 2928, 5958, 5959, 6060, 6059
2793, 2829, 2830, 2931, 2930, 5960, 5961, 6062, 6061
2794, 2830, 2831, 2932, 2931, 5961, 5962, 6063, 6062
2795, 2831, 2832, 2933, 2932, 5962, 5963, 6064, 6063
2796, 2832, 2833, 2934, 2933, 5963, 5964, 6065, 6064
2797, 2833, 2834, 2935, 2934, 5964, 5965, 6066, 6065
2798, 2834, 2835, 2936, 2935, 5965, 5966, 6067, 6066
2799, 2835, 2836, 2937, 2936, 5966, 5967, 6068, 6067
2800, 2836, 2837, 2938, 2937, 5967, 5968, 6069, 6068
2801, 2837, 2838, 2939, 2938, 5968, 5969, 6070, 6069
2802, 2838, 2839, 2940, 2939, 5969, 5970, 6071, 6070
2803, 2839, 2840, 2941, 2940, 5970, 5971, 6072, 6071
2804, 2840, 2841, 2942, 2941, 5971, 5972, 6073, 6072
2805, 2841, 2842, 2943, 2942, 5972, 5973, 6074, 6073
2806, 2842, 2843, 2944, 2943, 5973, 5974, 6075, 6074
2807, 2843, 2844, 2945, 2944, 5974, 5975, 6076, 6075
2808, 2844, 2845, 2946, 2945, 5975, 5976, 6077, 6076
2809, 2845, 2846, 2947, 2946, 5976, 5977, 6078, 6077
2810, 2846, 2847, 2948, 2947, 5977, 5978, 6079, 6078
2811, 2847, 2848, 2949, 2948, 5978, 5979, 6080, 6079
2812, 2848, 2849, 2950, 2949, 5979, 5980, 6081, 6080
2813, 2849, 2850, 2951, 2950, 5980, 5981, 6082, 6081
2814, 2850, 2851, 2952, 2951, 5981, 5982, 6083, 6082
2815, 2851, 2852, 2953, 2952, 5982, 5983, 6084, 6083
2816, 2852, 2853, 2954, 2953, 5983, 5984, 6085, 6084
2817, 2853, 2854, 2955, 2954, 5984, 5985, 6086, 6085
2818, 2854, 2855, 2956, 2955, 5985, 5986, 6087, 6086
2819, 2855, 2856, 2957, 2956, 5986, 5987, 6088, 6087
2820, 2856, 2857, 2958, 2957, 5987, 5988, 6089, 6088
2821, 2857, 2858, 2959, 2958, 5988, 5989, 6090, 6089
2822, 2858, 2859, 2960, 2959, 5989, 5990, 6091, 6090
2823, 2859, 2860, 2961, 2960, 5990, 5991, 6092, 6091
2824, 2860, 2861, 2962, 2961, 5991, 5992, 6093, 6092
2825, 2861, 2862, 2963, 2962, 5992, 5993, 6094, 6093
2826, 2862, 2863, 2964, 2963, 5993, 5994, 6095, 6094
2827, 2863, 2864, 2965, 2964, 5994, 5995, 6096, 6095
2828, 2864, 2865, 2966, 2965, 5995, 5996, 6097, 6096
2829, 2865, 2866, 2967, 2966, 5996, 5997, 6098, 6097
2830, 2866, 2867, 2968, 2967, 5997, 5998, 6099, 6098
2831, 2867, 2868, 2969, 2968, 5998, 5999, 6100, 6099
2832, 2868, 2869, 2970, 2969, 5999, 6000, 6101, 6100
2833, 2869, 2870, 2971, 2970, 6000, 6001, 6102, 6101
2834, 2870, 2871, 2972, 2971, 6001, 6002, 6103, 6102
2835, 2871, 2872, 2973, 2972, 6002, 6003, 6104, 6103
2836, 2872, 2873, 2974, 2973, 6003, 6004, 6105, 6104
2837, 2873, 2874, 2975, 2974, 6004, 6005, 6106, 6105
2838, 2874, 2875, 2976, 2975, 6005, 6006, 6107, 6106
2839, 2875, 2876, 2977, 2976, 6006, 6007, 6108, 6107
2840, 2876, 2877, 2978, 2977, 6007, 6008, 6109, 6108
2841, 2877, 2878, 2979, 2978, 6008, 6009, 6110, 6109
2842, 2878, 2879, 2980, 2979, 6009, 6010, 6111, 6110
2843, 2879, 2880, 2981, 2980, 6010, 6011, 6112, 6111
2844, 2880, 2881, 2982, 2981, 6011, 6012, 6113, 6112
2845, 2881, 2882, 2983, 2982, 6012, 6013, 6114, 6113
2846, 2882, 2883, 2984, 2983, 6013, 6014, 6115, 6114
2847, 2883, 2884, 2985, 2984, 6014, 6015, 6116, 6115
2848, 2884, 2885, 2986, 2985, 6015, 6016, 6117, 6116
2849, 2885, 2886, 2987, 2986, 6016, 6017, 6118, 6117
2850, 2886, 2887, 2988, 2987, 6017, 6018, 6119, 6118
2851, 2887, 2888, 2989, 2988, 6018, 6019, 6120, 6119
2852, 2888, 2889, 2990, 2989, 6019, 6020, 6121, 6120
2853, 2889, 2890, 2991, 2990, 6020, 6021, 6122, 6121
2854, 2890, 2891, 2992, 2991, 6021, 6022, 6123, 6122
2855, 2891, 2892, 2993, 2992, 6022, 6023, 6124, 6123
2856, 2892, 2893, 2994, 2993, 6023, 6024, 6125, 6124
2857, 2893, 2894, 2995, 2994, 6024, 6025, 6126, 6125
2858, 2894, 2895, 2996, 2995, 6025, 6026, 6127, 6126
2859, 2895, 2896, 2997, 2996, 6026, 6027, 6128, 6127
2860, 2896, 2897, 2998, 2997, 6027, 6028, 6129, 6128
2861, 2897, 2898, 2999, 2998, 6028, 6029, 6130, 6129
2862, 2898, 2899, 3000, 2999, 6029, 6030, 6131, 6130
2863, 2899, 2900, 3001, 3000, 6030, 6031, 6132, 6131
2864, 2900, 2901, 3002, 3001, 6031, 6032, 6133, 6132
2865, 2901, 2902, 3003, 3002, 6032, 6033, 6134, 6133
2866, 2902, 2903, 3004, 3003, 6033, 6034, 6135, 6134
2867, 2903, 2904, 3005, 3004, 6034, 6035, 6136, 6135
2868, 2904, 2905, 3006, 3005, 6035, 6036, 6137, 6136
2869, 2905, 2906, 3007, 3006, 6036, 6037, 6138, 6137
2870, 2906, 2907, 3008, 3007, 6037, 6038, 6139, 6138
2871, 2907, 2908, 3009, 3008, 6038, 6039, 6140, 6139
2872, 2908, 2909, 3010, 3009, 6039, 6040, 6141, 6140
2873, 2909, 2910, 3011, 3010, 6040, 6041, 6142, 6141
2874, 2910, 2911, 3012, 3011, 6041, 6042, 6143, 6142
2875, 2911, 2912, 3013, 3012, 6042, 6043, 6144, 6143
2876, 2912, 2913, 3014, 3013, 6043, 6044, 6145, 6144
2877, 2913, 2914, 3015, 3014, 6044, 6045, 6146, 6145
2878, 2914, 2915, 3016, 3015, 6045, 6046, 6147, 6146
2879, 2915, 2916, 3017, 3016, 6046, 6047, 6148, 6147
2880, 2916, 2917, 3018, 3017, 6047, 6048, 6149, 6148
2881, 2917, 2918, 3019, 3018, 6048, 6049, 6150, 6149
2882, 2918, 2919, 3020, 3019, 6049, 6050, 6151, 6150
2883, 2919, 2920, 3021, 3020, 6050, 6051, 6152, 6151
2884, 2920, 2921, 3022, 3021, 6051, 6052, 6153, 6152
2885, 2921, 2922, 3023, 3022, 6052, 6053, 6154, 6153
2886, 2922, 2923, 3024, 3023, 6053, 6054, 6155, 6154
2887, 2923, 2924, 3025, 3024, 6054, 6055, 6156, 6155
2888, 2924, 2925, 3026, 3025, 6055, 6056, 6157, 6156
2889, 2925, 2926, 3027, 3026, 6056, 6057, 6158, 6157
2890, 2926, 2927, 3028, 3027, 6057, 6058, 6159, 6158
2891, 2927, 2928, 3029, 3028, 6058, 6059, 6160, 6159
2892, 2928, 2929, 3030, 3029, 6059, 6060, 6161, 6160
2893, 2930, 2931, 3032, 3031, 6061, 6062, 6163, 6162
2894, 2931, 2932, 3033, 3032, 6062, 6063, 6164, 6163
2895, 2932, 2933, 3034, 3033, 6063, 6064, 6165, 6164
2896, 2933, 2934, 3035, 3034, 6064, 6065, 6166, 6165
2897, 2934, 2935, 3036, 3035, 6065, 6066, 6167, 6166
2898, 2935, 2936, 3037, 3036, 6066, 6067, 6168, 6167
2899, 2936, 2937, 3038, 3037, 6067, 6068, 6169, 6168
2900, 2937, 2938, 3039, 3038, 6068, 6069, 6170, 6169
2901, 2938, 2939, 3040, 3039, 6069, 6070, 6171, 6170
2902, 2939, 2940, 3041, 3040, 6070, 6071, 6172, 6171
2903, 2940, 2941, 3042, 3041, 6071, 6072, 6173, 6172
2904, 2941, 2942, 3043, 3042, 6072, 6073, 6174, 6173
2905, 2942, 2943, 3044, 3043, 6073, 6074, 6175, 6174
2906, 2943, 2944, 3045, 3044, 6074, 6075, 6176, 6175
2907, 2944, 2945, 3046, 3045, 6075, 6076, 6177, 6176
2908, 2945, 2946, 3047, 3046, 6076, 6077, 6178, 6177
2909, 2946, 2947, 3048, 3047, 6077, 6078, 6179, 6178
2910, 2947, 2948, 3049, 3048, 6078, 6079, 6180, 6179
2911, 2948, 2949, 3050, 3049, 6079, 6080, 6181, 6180
2912, 2949, 2950, 3051, 3050, 6080, 6081, 6182, 6181
2913, 2950, 2951, 3052, 3051, 6081, 6082, 6183, 6182
2914, 2951, 2952, 3053, 3052, 6082, 6083, 6184, 6183
2915, 2952, 2953, 3054, 3053, 6083, 6084, 6185, 6184
2916, 2953, 2954, 3055, 3054, 6084, 6085, 6186, 6185
2917, 2954, 2955, 3056, 3055, 6085, 6086, 6187, 6186
2918, 2955, 2956, 3057, 3056, 6086, 6087, 6188, 6187
2919, 2956, 2957, 3058, 3057, 6087, 6088, 6189, 6188
2920, 2957, 2958, 3059, 3058, 6088, 6089, 6190, 6189
2921, 2958, 2959, 3060, 3059, 6089, 6090, 6191, 6190
2922, 2959, 2960, 3061, 3060, 6090, 6091, 6192, 6191
2923, 2960, 2961, 3062, 3061, 6091, 6092, 6193, 6192
2924, 2961, 2962, 3063, 3062, 6092, 6093, 6194, 6193
2925, 2962, 2963, 3064, 3063, 6093, 6094, 6195, 6194
2926, 2963, 2964, 3065, 3064, 6094, 6095, 6196, 6195
2927, 2964, 2965, 3066, 3065, 6095, 6096, 6197, 6196
2928, 2965, 2966, 3067, 3066, 6096, 6097, 6198, 6197
2929, 2966, 2967, 3068, 3067, 6097, 6098, 6199, 6198
2930, 2967, 2968, 3069, 3068, 6098, 6099, 6200, 6199
2931, 2968, 2969, 3070, 3069, 6099, 6100, 6201, 6200
2932, 2969, 2970, 3071, 3070, 6100, 6101, 6202, 6201
2933, 2970, 2971, 3072, 3071, 6101, 6102, 6203, 6202
2934, 2971, 2972, 3073, 3072, 6102, 6103, 6204, 6203
2935, 2972, 2973, 3074, 3073, 6103, 6104, 6205, 6204
2936, 2973, 2974, 3075, 3074, 6104, 6105, 6206, 6205
2937, 2974, 2975, 3076, 3075, 6105, 6106, 6207, 6206
2938, 2975, 2976, 3077, 3076, 6106, 6107, 6208, 6207
2939, 2976, 2977, 3078, 3077, 6107, 6108, 6209, 6208
2940, 2977, 2978, 3079, 3078, 6108, 6109, 6210, 6209
2941, 2978, 2979, 3080, 3079, 6109, 6110, 6211, 6210
2942, 2979, 2980, 3081, 3080, 6110, 6111, 6212, 6211
2943, 2980, 2981, 3082, 3081, 6111, 6112, 6213, 6212
2944, 2981, 2982, 3083, 3082, 6112, 6113, 6214, 6213
2945, 2982, 2983, 3084, 3083, 6113, 6114, 6215, 6214
2946, 2983, 2984, 3085, 3084, 6114, 6115, 6216, 6215
2947, 2984, 2985, 3086, 3085, 6115, 6116, 6217, 6216
2948, 2985, 2986, 3087, 3086, 6116, 6117, 6218, 6217
2949, 2986, 2987, 3088, 3087, 6117, 6118, 6219, 6218
2950, 2987, 2988, 3089, 3088, 6118, 6119, 6220, 6219
2951, 2988, 2989, 3090, 3089, 6119, 6120, 6221, 6220
2952, 2989, 2990, 3091, 3090, 6120, 6121, 6222, 6221
2953, 2990, 2991, 3092, 3091, 6121, 6122, 6223, 6222
2954, 2991, 2992, 3093, 3092, 6122, 6123, 6224, 6223
2955, 2992, 2993, 3094, 3093, 6123, 6124, 6225, 6224
2956, 2993, 2994, 3095, 3094, 6124, 6125, 6226, 6225
2957, 2994, 2995, 3096, 3095, 6125, 6126, 6227, 6226
2958, 2995, 2996, 3097, 3096, 6126, 6127, 6228, 6227
2959, 2996, 2997, 3098, 3097, 6127, 6128, 6229, 6228
2960, 2997, 2998, 3099, 3098, 6128, 6129, 6230, 6229
2961, 2998, 2999, 3100, 3099, 6129, 6130, 6231, 6230
2962, 2999, 3000, 3101, 3100, 6130, 6131, 6232, 6231
2963, 3000, 3001, 3102, 3101, 6131, 6132, 6233, 6232
2964, 3001, 3002, 3103, 3102, 6132, 6133, 6234, 6233
2965, 3002, 3003, 3104, 3103, 6133, 6134, 6235, 6234
2966, 3003, 3004, 3105, 3104, 6134, 6135, 6236, 6235
2967, 3004, 3005, 3106, 3105, 6135, 6136, 6237, 6236
2968, 3005, 3006, 3107, 3106, 6136, 6137, 6238, 6237
2969, 3006, 3007, 3108, 3107, 6137, 6138, 6239, 6238
2970, 3007, 3008, 3109, 3108, 6138, 6139, 6240, 6239
2971, 3008, 3009, 3110, 3109, 6139, 6140, 6241, 6240
2972, 3009, 3010, 3111, 3110, 6140, 6141, 6242, 6241
2973, 3010, 3011, 3112, 3111, 6141, 6142, 6243, 6242
2974, 3011, 3012, 3113, 3112, 6142, 6143, 6244, 6243
2975, 3012, 3013, 3114, 3113, 6143, 6144, 6245, 6244
2976, 3013, 3014, 3115, 3114, 6144, 6145, 6246, 6245
2977, 3014, 3015, 3116, 3115, 6145, 6146, 6247, 6246
2978, 3015, 3016, 3117, 3116, 6146, 6147, 6248, 6247
2979, 3016, 3017, 3118, 3117, 6147, 6148, 6249, 6248
2980, 3017, 3018, 3119, 3118, 6148, 6149, 6250, 6249
2981, 3018, 3019, 3120, 3119, 6149, 6150, 6251, 6250
2982, 3019, 3020, 3121, 3120, 6150, 6151, 6252, 6251
2983, 3020, 3021, 3122, 3121, 6151, 6152, 6253, 6252
2984, 3021, 3022, 3123, 3122, 6152, 6153, 6254, 6253
2985, 3022, 3023, 3124, 3123, 6153, 6154, 6255, 6254
2986, 3023, 3024, 3125, 3124, 6154, 6155, 6256, 6255
2987, 3024, 3025, 3126, 3125, 6155, 6156, 6257, 6256
2988, 3025, 3026, 3127, 3126, 6156, 6157, 6258, 6257
2989, 3026, 3027, 3128, 3127, 6157, 6158, 6259, 6258
2990, 3027, 3028, 3129, 3128, 6158, 6159, 6260, 6259
2991, 3028, 3029, 3130, 3129, 6159, 6160, 6261, 6260
2992, 3029, 3030, 3131, 3130, 6160, 6161, 6262, 6261
