*Heading
Simple cube: 1mm x 1mm x 1mm, 2x2x1 elements
*Node
1, 0.000000, 0.000000, 0.000000
2, 0.000500, 0.000000, 0.000000
3, 0.001000, 0.000000, 0.000000
4, 0.000000, 0.000500, 0.000000
5, 0.000500, 0.000500, 0.000000
6, 0.001000, 0.000500, 0.000000
7, 0.000000, 0.001000, 0.000000
8, 0.000500, 0.001000, 0.000000
9, 0.001000, 0.001000, 0.000000
10, 0.000000, 0.000000, 0.001000
11, 0.000500, 0.000000, 0.001000
12, 0.001000, 0.000000, 0.001000
13, 0.000000, 0.000500, 0.001000
14, 0.000500, 0.000500, 0.001000
15, 0.001000, 0.000500, 0.001000
16, 0.000000, 0.001000, 0.001000
17, 0.000500, 0.001000, 0.001000
18, 0.001000, 0.001000, 0.001000
*Element, type=C3D8
1, 1, 2, 5, 4, 10, 11, 14, 13
2, 2, 3, 6, 5, 11, 12, 15, 14
3, 4, 5, 8, 7, 13, 14, 17, 16
4, 5, 6, 9, 8, 14, 15, 18, 17
*Nset, nset=LEFT
1, 4, 7, 10, 13, 16
*Nset, nset=RIGHT
3, 6, 9, 12, 15, 18
*Elset, elset=ALL
1, 2, 3, 4
*End
